&GLOBAL
  PRINT_LEVEL LOW
  WALLTIME 1000000000
   PROJECT test_1 
   !RUN_TYPE WFN_OPT
   !RUN_TYPE GEO_OPT
   RUN_TYPE MD
   SEED 300

&END GLOBAL

&EXT_RESTART
EXTERNAL_FILE test_1-1.restart
RESTART_POS T
RESTART_VEL T
RESTART_THERMOSTAT T
RESTART_COUNTERS OFF
&END EXT_RESTART

&MOTION

  &GEO_OPT
  MAX_ITER 30000
  &END GEO_OPT


  &MD

   COMVEL_TOL 0.000005
   ANGVEL_TOL 0.000005	
   ANGVEL_ZERO
   ENSEMBLE NVT
   STEPS 100000
   TIMESTEP 1
   TEMPERATURE 400.0

!   TEMP_TOL 40

!   &PRINT
!    &ENERGY
!       EACH 5
!    &END ENERGY
!    &RESTART
!       EACH 100
!    &END RESTART
!   &END PRINT

    &THERMOSTAT
      TYPE CSVR
      &CSVR
        TIMECON 40.
      &END CSVR
    &END THERMOSTAT

  
 &END MD

  &PRINT
   &RESTART
    &EACH
     MD 1
    &END EACH
   &END RESTART
  &END PRINT

  &FREE_ENERGY
	&METADYN
            USE_PLUMED .TRUE.
            PLUMED_INPUT_FILE ./plumed.dat
        &END METADYN
  &END FREE_ENERGY

!   &FREE_ENERGY
!    &METADYN
!      WELL_TEMPERED
!      WTGAMMA 10
!      DO_HILLS
!      NT_HILLS 100
!      WW 0.0005
!      &METAVAR
!       COLVAR 1
!       SCALE 0.08

!      &END METAVAR
!      &PRINT
!       &COLVAR
!        COMMON_ITERATION_LEVELS 10000
!       &END COLVAR
!       &HILLS
!        COMMON_ITERATION_LEVELS 10000
!       &END HILLS
!      &END PRINT

!    &END METADYN
!  &END FREE_ENERGY



&END MOTION

&FORCE_EVAL
  METHOD Quickstep

  &DFT
    WFN_RESTART_FILE_NAME test_1-RESTART.wfn
    CHARGE 0
    MULTIPLICITY 1
    BASIS_SET_FILE_NAME BASIS_MOLOPT
    POTENTIAL_FILE_NAME GTH_POTENTIALS
  
    &MGRID
      CUTOFF 300
    &END MGRID
    
    &QS      
      MAP_CONSISTENT
    &END QS

    !&POISSON
    !PERIODIC NONE
    !POISSON_SOLVER MT
    !&END POISSON

    &SCF

!      SCF_GUESS ATOMIC
      SCF_GUESS RESTART
      EPS_SCF 1.e-6
      MAX_SCF 50
      &OT
        MINIMIZER DIIS
        N_DIIS 7
        PRECONDITIONER FULL_KINETIC
      &END OT

       &OUTER_SCF
        TYPE NONE
        OPTIMIZER NONE
        EPS_SCF 1.0E-6
        MAX_SCF 25

       &END OUTER_SCF 
    &END SCF
    
    &XC
     &XC_FUNCTIONAL PBE
     &END XC_FUNCTIONAL

     &XC_GRID
      XC_SMOOTH_RHO NN50
      XC_DERIV NN50_SMOOTH
     &END XC_GRID

    &END XC

    &PRINT
     &MULLIKEN ON
	  FILENAME ./mulliken.dat
 	  &EACH
	   MD 500
	  &END EACH
     &END MULLIKEN
    &END PRINT

  &END DFT

  &SUBSYS
    &CELL
      ABC 10.4920 10.4920 10.0720
      PERIODIC XYZ
    &END CELL

    &KIND H
      BASIS_SET DZVP-MOLOPT-SR-GTH-q1
      POTENTIAL GTH-PBE-q1
      ELEMENT H
    &END KIND

    &KIND N
      BASIS_SET  DZVP-MOLOPT-SR-GTH-q5
      POTENTIAL GTH-PBE-q5
      ELEMENT N
    &END KIND

    &KIND B
      BASIS_SET  DZVP-MOLOPT-SR-GTH-q3
      POTENTIAL GTH-PBE-q3
      ELEMENT B
    &END KIND

    &COORD
  B        -3.2775724745       -2.7642034312        1.5165302938
  B        -1.1507592582        4.5276326151       -0.8526593597
  N        -2.6606798981       -3.1631698312        2.8253628772
  N         1.7962218867        1.9665224662        3.2841522069
  H        -1.6222229213       -3.3241456009        2.6178007218
  H         0.8745203959        1.7701083471        3.7551649367
  H        -2.9075357175       -1.5686397486        1.4838361935
  H        -1.0696872141        3.3398960715       -1.0526560768
  H        -2.6288796006       -2.3420702590        3.4809965511
  H        -2.8966209854       -3.9803087591        3.4023346326
  H         2.2115226353        1.0021471468        3.2754336516
  H         2.4371124497        2.4411388165        3.9867777557
  H        -4.5403755108       -2.9413803870        1.5844978241
  H        -2.7442319927       -3.3160819268        0.5659933156
  H        -2.3757776911        4.9921260000       -0.8593324793
  H        -0.4225735786        5.3759567819       -1.4835972418
  B         3.7734107239       -0.9838696162       -0.5024324235
  B         6.5771427213        1.8015699866        1.4715889613
  N         5.2589830907       -0.6811483025       -0.3047306455
  N         6.4167442336        2.2631838306        3.0270246057
  H         5.5267294663       -1.0585679058        0.6534512036
  H         7.2356274249        2.0963687682        3.6823910253
  H         3.2679700941       -0.5450112445        0.4640915706
  H         7.1208289490        0.7190913401        1.5261742035
  H         5.8476853834       -1.1742449492       -0.9564092712
  H         5.4314894985        0.3365178970       -0.1298435058
  H         6.2901877321        3.2787047250        3.2064300476
  H         5.5820874205        1.8009265711        3.5584346429
  H         3.6440178747       -2.2384745126       -0.7558846847
  H         3.3392161332       -0.2251118835       -1.4349679899
  H         7.4232223612        2.5836390313        1.0762011655
  H         5.4779379753        1.6818977402        0.9034319648
  B        -0.3266618309        4.0465206594        1.3561743846
  B         1.0311603128        7.3149185089        2.0863322232
  N         1.2271206050        3.9177464943        1.5460923718
  N         2.6128212783        7.4024586901        1.7884802924
  H         1.6497960215        4.7613425596        1.8073572712
  H         2.9562661715        6.4570655605        1.3631780918
  H        -0.9356516208        4.6951122375        2.2170103045
  H         0.4149748592        6.8784426833        1.1087697390
  H         1.5467959844        3.1714927083        2.2402261475
  H         1.7444503578        3.6708130296        0.6778752954
  H         2.8355102380        8.0399015770        0.9931369346
  H         3.1008441452        7.4043949669        2.7111322471
  H        -0.7824472948        2.8407831963        1.2293084593
  H        -0.6432408417        4.9172924621        0.3583131755
  H         0.6475277950        8.3859902965        2.4657371328
  H         0.7914477726        6.5812217029        2.9633093029
  B         4.0546178150        4.8361501269       -0.6914499937
  B         4.1533512374        4.7292290881        3.8599044130
  N         5.5026776136        5.0469071602        0.1138204891
  N         4.6140721129        4.4905867391        5.2633589666
  H         6.3365388441        4.6965115182       -0.3708918779
  H         4.8409371644        5.4342820253        5.6774153662
  H         3.8148798515        5.4443492603       -1.6786702932
  H         4.7915433050        5.6464119225        3.3230227783
  H         5.7893734290        5.9913824858        0.1514778234
  H         5.5038082218        4.7078497691        1.0956053360
  H         3.9624276792        4.0288095776        5.8151496291
  H         5.5039153733        3.9522507519        5.5130700280
  H         3.2058979954        4.7782832302        0.1149272025
  H         4.1773921432        3.8016505169       -1.3022586625
  H         2.9609963344        5.0648229574        3.9939792701
  H         4.3424002873        3.7450210086        3.1321600469
  B        -1.4323006951       -0.6442730838        4.4326911754
  B        -0.1413448445       -0.3251211047        9.3873204965
  N         0.1305705707       -0.7288351712        4.7859365505
  N        -0.7311014049       -0.4153264625       10.8877810292
  H         0.6234552486        0.1380335251        4.6939419299
  H        -0.0040605519       -0.7718462763       11.5103164246
  H        -1.9316142774       -1.6172692286        4.7283796016
  H        -0.6063219546       -1.2151909101        8.6629124969
  H         0.1950870181       -1.0656106733        5.8071492304
  H         0.6111004521       -1.3931044878        4.1292940026
  H        -1.0075411160        0.4869126929       11.2851284194
  H        -1.5168950787       -1.0915657369       11.0032429142
  H        -1.7238249710       -0.3407533633        3.2735243714
  H        -1.7251847934        0.1512338685        5.4151486483
  H         1.0023010494       -0.6783798885        9.6763092411
  H        -0.3652672417        0.7057626329        8.8990513166
  B         4.0337077238       -0.9803911312        4.1283371462
  B         6.2494759159        2.3560801753        6.7735051358
  N         4.2191117283       -0.9628039781        5.6993073216
  N         7.8327096664        2.0422148882        7.1771761994
  H         3.7622056876       -1.8121055197        5.9511508939
  H         8.5066580212        2.7097553318        6.7236516757
  H         4.7813699174       -1.9005263364        3.8033303514
  H         6.1570139968        2.2192371805        5.5709383842
  H         5.2253065714       -0.9641852783        5.8852859671
  H         3.7764433876       -0.3188227756        6.2590621909
  H         8.0885817852        1.9037712759        8.1942729325
  H         7.9083394128        1.0609522870        6.8436233732
  H         4.1836531816        0.1201974056        3.6542996311
  H         2.8626364746       -1.3444816134        3.9677949925
  H         6.1825447327        3.5518487835        7.1434361061
  H         5.5547344650        1.6995465768        7.6084550612
  B        -2.0141500561        4.7603750925        5.2982260357
  B         0.9582144155        7.8456524963        7.0074168214
  N        -0.4719612532        4.8969943171        4.8473930861
  N         1.5647508215        7.2541112013        8.3388903045
  H         0.0784378394        4.0567297818        5.1044200883
  H         2.5690215899        7.0953822137        8.3947769737
  H        -2.6104455300        5.6748456420        4.9794049139
  H         1.5306921697        7.2682499978        6.1380818185
  H        -0.4844369307        5.0872577970        3.8280845193
  H         0.0320136213        5.6866801726        5.2313737967
  H         1.2513801444        7.9272468771        9.0547199720
  H         1.2619486350        6.3067386216        8.4794166486
  H        -2.0222575697        4.5769450317        6.5162743093
  H        -2.5873120836        3.9130088360        4.6461527471
  H         1.2869045761        9.0420374623        7.1684730786
  H        -0.2652204009        7.7721267448        7.1803936528
  B         2.1095751725        2.3203000485        6.5658381043
  B         6.4723966901        8.0447352574        6.8191726355
  N         2.0150182595        2.4244306433        8.1760657955
  N         7.8271220816        7.5254789845        7.4388397287
  H         1.9493127701        1.5041727250        8.6713461729
  H         8.6539605658        7.9471898894        6.9698252217
  H         1.6963466693        3.4734108804        6.2050396681
  H         5.4807315865        7.7240787465        7.4518679957
  H         2.6786188456        3.0007296105        8.6915680160
  H         1.0642567826        2.7343466606        8.4100585434
  H         7.9260094900        7.6384574465        8.4335287529
  H         7.9475810590        6.5056557217        7.2300226556
  H         1.4210072207        1.3283312675        6.3248767305
  H         3.4010850320        2.1963494082        6.2798379746
  H         6.3688189268        7.5277049694        5.8074900441
  H         6.4574810515        9.2579837105        6.8167099596
     &END COORD

   &END SUBSYS
&END FORCE_EVAL
