&GLOBAL
  PRINT_LEVEL LOW
  WALLTIME 1000000000
   PROJECT test_1 
   !RUN_TYPE WFN_OPT
   !RUN_TYPE GEO_OPT
   RUN_TYPE MD
   SEED 300

&END GLOBAL

&EXT_RESTART
EXTERNAL_FILE test_1-1.restart
RESTART_POS T
RESTART_VEL T
RESTART_THERMOSTAT T
!RESTART_COUNTERS OFF
&END EXT_RESTART

&MOTION

  &GEO_OPT
  MAX_ITER 30000
  &END GEO_OPT


  &MD

   COMVEL_TOL 0.000005
   ANGVEL_TOL 0.000005	
   ANGVEL_ZERO
   ENSEMBLE NVT
   STEPS 100000
   TIMESTEP 1
   TEMPERATURE 400.0

!   TEMP_TOL 40

!   &PRINT
!    &ENERGY
!       EACH 5
!    &END ENERGY
!    &RESTART
!       EACH 100
!    &END RESTART
!   &END PRINT

    &THERMOSTAT
      TYPE CSVR
      &CSVR
        TIMECON 40.
      &END CSVR
    &END THERMOSTAT

  
 &END MD

  &PRINT
   &RESTART
    &EACH
     MD 1
    &END EACH
   &END RESTART
  &END PRINT

  &FREE_ENERGY
	&METADYN
            USE_PLUMED .TRUE.
            PLUMED_INPUT_FILE ./plumed.dat
        &END METADYN
  &END FREE_ENERGY

!   &FREE_ENERGY
!    &METADYN
!      WELL_TEMPERED
!      WTGAMMA 10
!      DO_HILLS
!      NT_HILLS 100
!      WW 0.0005
!      &METAVAR
!       COLVAR 1
!       SCALE 0.08

!      &END METAVAR
!      &PRINT
!       &COLVAR
!        COMMON_ITERATION_LEVELS 10000
!       &END COLVAR
!       &HILLS
!        COMMON_ITERATION_LEVELS 10000
!       &END HILLS
!      &END PRINT

!    &END METADYN
!  &END FREE_ENERGY



&END MOTION

&FORCE_EVAL
  METHOD Quickstep

  &DFT
    WFN_RESTART_FILE_NAME test_1-RESTART.wfn
    CHARGE 0
    MULTIPLICITY 1
    BASIS_SET_FILE_NAME BASIS_MOLOPT
    POTENTIAL_FILE_NAME GTH_POTENTIALS
  
    &MGRID
      CUTOFF 300
    &END MGRID
    
    &QS      
      MAP_CONSISTENT
    &END QS

    !&POISSON
    !PERIODIC NONE
    !POISSON_SOLVER MT
    !&END POISSON

    &SCF

!      SCF_GUESS ATOMIC
      SCF_GUESS RESTART
      EPS_SCF 1.e-6
      MAX_SCF 50
      &OT
        MINIMIZER DIIS
        N_DIIS 7
        PRECONDITIONER FULL_KINETIC
      &END OT

       &OUTER_SCF
        TYPE NONE
        OPTIMIZER NONE
        EPS_SCF 1.0E-6
        MAX_SCF 25

       &END OUTER_SCF 
    &END SCF
    
    &XC
     &XC_FUNCTIONAL PBE
     &END XC_FUNCTIONAL

     &XC_GRID
      XC_SMOOTH_RHO NN50
      XC_DERIV NN50_SMOOTH
     &END XC_GRID

    &END XC

    &PRINT
     &MULLIKEN ON
	  FILENAME ./mulliken.dat
 	  &EACH
	   MD 1
	  &END EACH
     &END MULLIKEN
    &END PRINT

  &END DFT

  &SUBSYS
    &CELL
      ABC 10.4920 10.4920 10.0720
      PERIODIC XYZ
    &END CELL

    &KIND H
      BASIS_SET DZVP-MOLOPT-SR-GTH-q1
      POTENTIAL GTH-PBE-q1
      ELEMENT H
    &END KIND

    &KIND N
      BASIS_SET  DZVP-MOLOPT-SR-GTH-q5
      POTENTIAL GTH-PBE-q5
      ELEMENT N
    &END KIND

    &KIND B
      BASIS_SET  DZVP-MOLOPT-SR-GTH-q3
      POTENTIAL GTH-PBE-q3
      ELEMENT B
    &END KIND

    &COORD
  B        -1.3562274746       -1.0369474933       -0.2175831559
  B        -0.3877024423        3.2210027601       -0.7986026373
  N        -2.0805896446       -0.7067659592        1.1568804860
  N         1.3093558999        1.1216894866        1.8399742134
  H        -3.0808319053       -1.1034732008        1.2902795249
  H         0.6017209039        0.4311033293        1.9842996723
  H        -1.3490592699       -2.2687403642       -0.4088350513
  H        -1.0572363367        2.4945492566       -1.5748301597
  H        -1.5703984280       -0.9871237199        2.0215530388
  H        -2.2459233824        0.2971369323        1.2420412584
  H         1.2890720895        1.5824874990        2.7782630195
  H         0.7720177179        1.8258413328        1.2949347840
  H        -0.1622546712       -0.6714617475       -0.1233753232
  H        -1.8644460917       -0.4979739526       -1.1512791594
  H         0.7346202022        3.3641723646       -1.1922556618
  H        -0.3505708129        2.8370773427        0.3731236871
  B         4.1053555932       -0.5270358035       -0.1381797707
  B         6.6042113186        2.4793800925        2.0705691945
  N         3.5455419165       -0.5970104263        1.4295941834
  N         6.8377330038        2.3941924218        3.6113202451
  H         2.7209684598        0.0598562231        1.4955274875
  H         6.7584264848        1.4494715896        4.0161962177
  H         3.9531928363        0.6170309691       -0.5250178780
  H         6.0393720516        1.4831728023        1.7064686221
  H         3.2853592527       -1.5236979293        1.6722598466
  H         4.2333022441       -0.3452248078        2.1644235097
  H         7.7953434131        2.7236436546        3.8665995898
  H         6.1128180652        3.0022590395        4.1154705001
  H         3.5118788686       -1.3802099740       -0.7389749520
  H         5.3160978143       -0.6896866566       -0.2422180100
  H         7.7033377911        2.2740428415        1.6983895251
  H         6.1250413197        3.5304942979        1.6332638648
  B        -1.7262414747        5.1983049130       -0.3466512591
  B         1.0482800001        7.2777160775        2.1798105904
  N        -1.5077832983        5.3223488158        1.2240608418
  N         1.1015871203        7.2505276672        3.8239219700
  H        -2.2277933323        6.0294580141        1.5037089012
  H         0.8204506777        6.3020628794        4.1570984139
  H        -1.2565786988        6.2217665349       -0.9609992609
  H        -0.0711561250        7.6056840712        1.7741874262
  H        -1.6592074743        4.4779968142        1.7498198767
  H        -0.5781933356        5.5421676637        1.5360850825
  H         2.0512930322        7.4872555239        4.1274415974
  H         0.5650039778        8.0246682500        4.2590343801
  H        -2.7816199357        4.7224836415       -0.7020496431
  H        -0.5558901185        4.5654671491       -0.9686958465
  H         1.2251412541        6.0731711234        1.8971229909
  H         1.9620345887        7.9613321240        1.6760924821
  B         3.7997907700        4.5365850020       -0.2049386401
  B         6.2213810475        6.6962473136        2.5496691929
  N         3.5824686936        4.4912499316        1.4447572049
  N         6.2556893984        7.1322480577        4.1049810132
  H         4.5512379986        4.5590756097        1.9466134788
  H         5.6740647534        8.0151787013        4.3576811205
  H         4.9639177467        4.8511413780       -0.2368877212
  H         7.0316156141        7.4322054706        1.8090980470
  H         2.9856141593        5.3245806869        1.7345987159
  H         3.1061310779        3.6953788558        1.8921410931
  H         5.8614011647        6.3990038651        4.7439848031
  H         7.2230350856        7.2037500762        4.4266082864
  H         3.1839040886        5.6092697113       -0.5404633912
  H         3.4601702251        3.5620040638       -0.8671825482
  H         5.1092701024        6.7271209855        2.1786066711
  H         6.7372363606        5.6191094007        2.4988205932
  B        -1.5093557345       -1.0024746707        4.5411075342
  B         1.4561086282        0.8584391021        6.7122217046
  N        -1.3886834116       -0.8908581462        6.0624783660
  N         1.4028322539        0.8602766845        8.4458966754
  H        -0.4663779745       -0.8785545340        6.5753872047
  H         0.6580908746        1.5117176022        8.8726059535
  H        -2.4363055187       -0.3962177343        4.1540294122
  H         0.4277379414        1.4755916189        6.4677683283
  H        -1.8733097804       -0.0273609678        6.3887591128
  H        -1.8487932923       -1.6825938035        6.6206450228
  H         0.9732100790       -0.0425900185        8.6988176540
  H         2.2562441979        0.9579137888        8.9086279821
  H        -1.5072851459       -2.2140068890        4.0427174841
  H        -0.4889429600       -0.4088787066        3.8920835897
  H         1.3697197769       -0.2420069596        6.4282767176
  H         2.4287294979        1.3912418979        6.1863481034
  B         4.7210525880       -0.5235086781        4.5986904599
  B         6.4763005540        2.0930749638        7.3557227077
  N         4.4177676793       -0.7031258078        6.2196978521
  N         6.7946468003        2.1490312498        8.9809130093
  H         4.8129894562        0.1829074684        6.6041185922
  H         6.7833028048        1.1820563094        9.3789135715
  H         3.9231082301        0.2682609088        4.1454968651
  H         5.2664361419        1.7654701694        7.3935821492
  H         3.4762688179       -0.8818850265        6.4088991848
  H         4.9675575724       -1.4537360134        6.6050687757
  H         7.8096499134        2.4447610557        9.1671847257
  H         6.0911734556        2.6220714605        9.5575764677
  H         4.3853721791       -1.5883466497        4.1517537723
  H         5.9762163650       -0.4281246670        4.4866081685
  H         7.2545370931        1.4306018432        6.7527879761
  H         6.5924691234        3.3241131833        7.1674974082
  B        -0.5801676491        4.4455762493        4.5957405552
  B         1.5308953592        6.9056343736        7.1614589100
  N        -0.4186407644        3.9481345046        6.0512718859
  N         1.3231028109        7.2363078993        8.7616046559
  H        -1.2782591470        3.7411658860        6.5659620607
  H         1.6329984633        6.4594605858        9.2550881650
  H        -1.1583061303        3.6136702242        3.9248678961
  H         2.6251573310        7.2491991809        6.9997184388
  H         0.1102781719        3.0779893280        6.1492748835
  H         0.1703340317        4.5931836235        6.5793298912
  H         2.0276385794        7.9996057536        8.9657960079
  H         0.4592011336        7.5320141272        9.1707636210
  H         0.5618454105        4.6292573000        4.1838427327
  H        -1.3195101782        5.3463392085        4.4136795775
  H         0.6950809628        7.6753334526        6.5456307060
  H         1.1742320127        5.7279892463        6.8802702635
  B         4.1707147161        4.0995735022        4.8328063408
  B         6.4706246011        7.5242468900        7.3817832271
  N         3.7734350777        3.8691303570        6.3523443789
  N         6.2423535855        7.3332835633        8.9350110567
  H         4.5439274154        3.5023383078        6.9518782736
  H         5.7160224163        6.5148436778        9.3779152739
  H         3.6014213624        5.0282440850        4.2961356648
  H         5.3864068148        7.1007263420        6.8456194500
  H         3.4304191226        4.6973923016        6.9107904895
  H         3.0110938329        3.2683602590        6.4434117350
  H         7.2124582802        7.2402201003        9.3329863726
  H         5.8309952989        8.1536237869        9.3341500208
  H         3.8635984694        3.0413969715        4.1388318465
  H         5.4334946388        4.1874334140        4.7401238157
  H         7.3863307940        6.7920351238        7.0844185383
  H         6.7083397318        8.6226652125        7.0106770157
     &END COORD

   &END SUBSYS
&END FORCE_EVAL
