&GLOBAL
  PRINT_LEVEL LOW
  WALLTIME 1000000000
   PROJECT test_1 
   !RUN_TYPE WFN_OPT
   !RUN_TYPE GEO_OPT
   RUN_TYPE MD
   SEED 300

&END GLOBAL

&EXT_RESTART
EXTERNAL_FILE test_1-1.restart
RESTART_POS T
RESTART_VEL T
RESTART_THERMOSTAT T
!RESTART_COUNTERS OFF
&END EXT_RESTART

&MOTION

  &GEO_OPT
  MAX_ITER 30000
  &END GEO_OPT


  &MD

   COMVEL_TOL 0.000005
   ANGVEL_TOL 0.000005	
   ANGVEL_ZERO
   ENSEMBLE NVT
   STEPS 100000
   TIMESTEP 1
   TEMPERATURE 400.0

!   TEMP_TOL 40

!   &PRINT
!    &ENERGY
!       EACH 5
!    &END ENERGY
!    &RESTART
!       EACH 100
!    &END RESTART
!   &END PRINT

    &THERMOSTAT
      TYPE CSVR
      &CSVR
        TIMECON 40.
      &END CSVR
    &END THERMOSTAT

  
 &END MD

  &PRINT
   &RESTART
    &EACH
     MD 1
    &END EACH
   &END RESTART
  &END PRINT

  &FREE_ENERGY
	&METADYN
            USE_PLUMED .TRUE.
            PLUMED_INPUT_FILE ./plumed.dat
        &END METADYN
  &END FREE_ENERGY

!   &FREE_ENERGY
!    &METADYN
!      WELL_TEMPERED
!      WTGAMMA 10
!      DO_HILLS
!      NT_HILLS 100
!      WW 0.0005
!      &METAVAR
!       COLVAR 1
!       SCALE 0.08

!      &END METAVAR
!      &PRINT
!       &COLVAR
!        COMMON_ITERATION_LEVELS 10000
!       &END COLVAR
!       &HILLS
!        COMMON_ITERATION_LEVELS 10000
!       &END HILLS
!      &END PRINT

!    &END METADYN
!  &END FREE_ENERGY



&END MOTION

&FORCE_EVAL
  METHOD Quickstep

  &DFT
    WFN_RESTART_FILE_NAME test_1-RESTART.wfn
    CHARGE 0
    MULTIPLICITY 1
    BASIS_SET_FILE_NAME BASIS_MOLOPT
    POTENTIAL_FILE_NAME GTH_POTENTIALS
  
    &MGRID
      CUTOFF 300
    &END MGRID
    
    &QS      
      MAP_CONSISTENT
    &END QS

    !&POISSON
    !PERIODIC NONE
    !POISSON_SOLVER MT
    !&END POISSON

    &SCF

!      SCF_GUESS ATOMIC
      SCF_GUESS RESTART
      EPS_SCF 1.e-6
      MAX_SCF 50
      &OT
        MINIMIZER DIIS
        N_DIIS 7
        PRECONDITIONER FULL_KINETIC
      &END OT

       &OUTER_SCF
        TYPE NONE
        OPTIMIZER NONE
        EPS_SCF 1.0E-6
        MAX_SCF 25

       &END OUTER_SCF 
    &END SCF
    
    &XC
     &XC_FUNCTIONAL PBE
     &END XC_FUNCTIONAL

     &XC_GRID
      XC_SMOOTH_RHO NN50
      XC_DERIV NN50_SMOOTH
     &END XC_GRID

    &END XC

    &PRINT
     &MULLIKEN ON
	  FILENAME ./mulliken.dat
 	  &EACH
	   MD 1
	  &END EACH
     &END MULLIKEN
    &END PRINT

  &END DFT

  &SUBSYS
    &CELL
      ABC 10.4920 10.4920 10.0720
      PERIODIC XYZ
    &END CELL

    &KIND H
      BASIS_SET DZVP-MOLOPT-SR-GTH-q1
      POTENTIAL GTH-PBE-q1
      ELEMENT H
    &END KIND

    &KIND N
      BASIS_SET  DZVP-MOLOPT-SR-GTH-q5
      POTENTIAL GTH-PBE-q5
      ELEMENT N
    &END KIND

    &KIND B
      BASIS_SET  DZVP-MOLOPT-SR-GTH-q3
      POTENTIAL GTH-PBE-q3
      ELEMENT B
    &END KIND

    &COORD
  B        -1.2323809362       -0.9488836646       -0.4880527436
  B        -0.2314139661        3.7808448959       -0.0899199180
  N        -0.9927076543       -1.2475769955        1.1060519941
  N         1.6057281383        1.4750931116        2.0583393412
  H        -1.1733694855       -0.3493494322        1.5922013765
  H         1.2585713524        2.2746003324        1.5215772248
  H        -2.3162080609       -0.4141547898       -0.4172863374
  H        -0.0618438925        3.9927737412       -1.2835640314
  H        -1.6515018578       -1.8757686380        1.5469735092
  H        -0.0483650983       -1.6822717993        1.3266225027
  H         0.7592252175        1.1903755394        2.6042330729
  H         2.2764408517        1.8097082303        2.8018851599
  H        -1.2937545609       -1.9971093966       -1.0225500894
  H        -0.3898946492       -0.1799031475       -0.9243154105
  H         0.8798404267        3.9220877242        0.4181438188
  H        -0.5685736121        2.7265257147        0.3055392162
  B         4.0820809567       -0.4179623290       -0.1922572145
  B         6.1115226586        1.9032423310        1.9530088371
  N         3.6839130832       -0.5660326952        1.4072715444
  N         6.3449810702        1.8531326892        3.4925946752
  H         2.7725745105       -0.1713818446        1.5727181868
  H         6.1674134396        0.9191386588        3.8748493816
  H         3.9732853207        0.8077837270       -0.6031273594
  H         4.8714234091        2.0457677776        1.7763774461
  H         3.5759223123       -1.6612938513        1.5685284485
  H         4.4335260302       -0.1828848604        1.9917741452
  H         7.3219000451        1.9816760701        3.8029166456
  H         5.8116077073        2.5013094749        4.0672430627
  H         3.2896780568       -1.1505700979       -0.7036384637
  H         5.1793387281       -0.7446392379       -0.4411777719
  H         6.7364175192        0.9848127280        1.5082034817
  H         6.4562146524        2.9572478896        1.3691340774
  B        -1.6374273935        4.8824249634        0.3359372960
  B         1.7201217597        7.0259455058        2.2813069675
  N        -2.0977479137        4.7181670161        1.7644566054
  N         1.6110940548        7.3438578992        3.8228716599
  H        -2.5968740589        5.4969223482        2.1544838804
  H         0.6810602978        7.7212707402        4.0807848487
  H        -1.4993874267        6.0763394044       -0.0254083084
  H         1.3009596669        7.9145040622        1.5974068486
  H        -2.8181505014        3.9587498546        1.8038298862
  H        -1.3266053781        4.4031632988        2.4341620401
  H         1.7426983842        6.4782530946        4.3478257147
  H         2.3760338546        7.9106897539        4.2556803972
  H        -2.3936943121        4.2665905670       -0.4766778263
  H        -0.3699043075        4.8499344825        0.5028844363
  H         1.0746562791        6.0129713920        2.1955975970
  H         2.8609985229        6.7541847054        2.1025014580
  B         3.5680209674        4.7329993009       -0.3345955494
  B         6.5158903376        7.3798403678        2.4342394234
  N         3.5386058555        4.2868298069        1.1477237072
  N         6.5176336235        7.3198551180        4.1480173741
  H         3.7556288781        3.2800993644        1.3497226722
  H         6.6587963488        8.2415989274        4.4062591650
  H         4.7343166369        4.9134269019       -0.6186260207
  H         7.7114234837        7.2710256471        2.0513922233
  H         4.0461311530        4.8030033985        1.8193031739
  H         2.5748029151        4.4743690960        1.4965534800
  H         5.5608147622        6.9336500642        4.4824773758
  H         7.1988850021        6.6617043459        4.4816822597
  H         3.1967259865        5.9686745226       -0.2954562312
  H         2.9064409611        4.0877631160       -1.2001374582
  H         5.9842825314        8.5139131611        2.2646143505
  H         5.9689196258        6.3621509080        1.9746661901
  B        -1.4003236472       -0.6529390970        4.2189530915
  B         1.5905237933        1.2844742371        7.1054350100
  N        -1.3064261538        0.1678457130        5.6260030176
  N         1.4403651436        1.3484488569        8.6579730316
  H        -1.9905192320       -0.0297803307        6.2998069487
  H         2.0857662793        2.1309661096        8.8339910428
  H        -0.9217531057        0.1451847429        3.5041581557
  H         0.7286213346        2.0469269117        6.6683289598
  H        -0.4704994754       -0.0904801943        6.1008513118
  H        -1.3580046638        1.2087811038        5.6153795843
  H         0.5202409499        1.7322228555        8.9857159781
  H         1.8917073460        0.5341351134        9.0842189466
  H        -2.5597980975       -0.7613405229        3.7435067910
  H        -0.7658206417       -1.7108476997        4.3332121102
  H         1.4012670094        0.1376749722        6.5867563512
  H         2.6361537054        1.6595945247        6.7606844492
  B         4.0739574696       -0.8388787113        4.7699461853
  B         6.8284373114        2.3991941274        7.3398529333
  N         4.1707614708       -1.1016309013        6.3524724719
  N         6.0358219896        2.4220264965        8.7469984604
  H         3.9336101343       -0.2027635187        6.7551593201
  H         5.4169970058        3.2899376204        8.8393317391
  H         3.1644591881       -0.0522928622        4.6524157488
  H         6.6657466433        3.4832398304        6.6775690388
  H         3.5926112228       -1.8315430276        6.7828260010
  H         5.1518760292       -1.1760729123        6.7229278908
  H         5.4295844645        1.5211522730        8.8856063899
  H         6.7226289936        2.3704461665        9.4491461812
  H         3.7873597583       -1.9292541035        4.4442619901
  H         5.1531243622       -0.5108694732        4.1439583375
  H         6.5778413603        1.4997883558        6.5938663271
  H         8.0035736554        2.4805434642        7.6903613166
  B        -1.0634616894        3.7390990235        4.5397584739
  B         1.4098220618        6.9105648768        7.0710901041
  N        -0.7589785361        4.2460573506        6.0639952173
  N         1.1606625323        7.0097955231        8.6185556701
  H        -1.4671576664        3.9194834664        6.7168435142
  H         1.9398636443        6.6714428928        9.2113914438
  H        -2.2446923012        4.1518832105        4.4225657005
  H         2.0308116087        7.8371067646        6.6019161096
  H         0.0924751553        3.8132374133        6.4453917544
  H        -0.5647920225        5.1989403453        6.1425202625
  H         0.8431888807        8.0175540362        8.9990927976
  H         0.4113884981        6.3700764148        8.9689341297
  H        -0.9051714364        2.5226949262        4.4744902387
  H        -0.2240031222        4.3206696878        3.8519624708
  H         0.3628872876        6.7291835545        6.4782675590
  H         2.0171229270        5.8629600186        7.0012112985
  B         3.8545237970        4.7092784063        4.6587265260
  B         6.5546087394        7.2068328803        7.4376019852
  N         3.9553558782        4.1080205780        6.1677718824
  N         6.4901972390        7.1154352942        9.1174310978
  H         4.8831549340        3.8309353405        6.5317771118
  H         6.1839716315        6.2125640458        9.4596579190
  H         2.8204588994        4.4344335346        4.0004502817
  H         5.3662210106        7.0222820358        6.9737828396
  H         3.6256007269        4.8536652131        6.8538484547
  H         3.4276695083        3.2209664019        6.3212661202
  H         7.5002326403        7.2736812648        9.3494553349
  H         5.9175588655        7.9023337249        9.5046667229
  H         4.5794431845        4.0878399266        3.9664017612
  H         4.0215279245        5.8943080246        4.6318940031
  H         7.3497955082        6.2724957141        7.1529771097
  H         6.7796852678        8.2708919068        6.9918485594 
     &END COORD

   &END SUBSYS
&END FORCE_EVAL
