&GLOBAL
  PRINT_LEVEL LOW
  WALLTIME 1000000000
   PROJECT test_1 
   !RUN_TYPE WFN_OPT
   !RUN_TYPE GEO_OPT
   RUN_TYPE MD
   SEED 300

&END GLOBAL

&EXT_RESTART
EXTERNAL_FILE test_1-1.restart
RESTART_POS T
RESTART_VEL T
RESTART_THERMOSTAT T
!RESTART_COUNTERS OFF
&END EXT_RESTART

&MOTION

  &GEO_OPT
  MAX_ITER 30000
  &END GEO_OPT


  &MD

   COMVEL_TOL 0.000005
   ANGVEL_TOL 0.000005	
   ANGVEL_ZERO
   ENSEMBLE NVT
   STEPS 100000
   TIMESTEP 1
   TEMPERATURE 400.0

!   TEMP_TOL 40

!   &PRINT
!    &ENERGY
!       EACH 5
!    &END ENERGY
!    &RESTART
!       EACH 100
!    &END RESTART
!   &END PRINT

    &THERMOSTAT
      TYPE CSVR
      &CSVR
        TIMECON 40.
      &END CSVR
    &END THERMOSTAT

  
 &END MD

  &PRINT
   &RESTART
    &EACH
     MD 1
    &END EACH
   &END RESTART
  &END PRINT

  &FREE_ENERGY
	&METADYN
            USE_PLUMED .TRUE.
            PLUMED_INPUT_FILE ./plumed.dat
        &END METADYN
  &END FREE_ENERGY

!   &FREE_ENERGY
!    &METADYN
!      WELL_TEMPERED
!      WTGAMMA 10
!      DO_HILLS
!      NT_HILLS 100
!      WW 0.0005
!      &METAVAR
!       COLVAR 1
!       SCALE 0.08

!      &END METAVAR
!      &PRINT
!       &COLVAR
!        COMMON_ITERATION_LEVELS 10000
!       &END COLVAR
!       &HILLS
!        COMMON_ITERATION_LEVELS 10000
!       &END HILLS
!      &END PRINT

!    &END METADYN
!  &END FREE_ENERGY



&END MOTION

&FORCE_EVAL
  METHOD Quickstep

  &DFT
    WFN_RESTART_FILE_NAME test_1-RESTART.wfn
    CHARGE 0
    MULTIPLICITY 1
    BASIS_SET_FILE_NAME BASIS_MOLOPT
    POTENTIAL_FILE_NAME GTH_POTENTIALS
  
    &MGRID
      CUTOFF 300
    &END MGRID
    
    &QS      
      MAP_CONSISTENT
    &END QS

    !&POISSON
    !PERIODIC NONE
    !POISSON_SOLVER MT
    !&END POISSON

    &SCF

!      SCF_GUESS ATOMIC
      SCF_GUESS RESTART
      EPS_SCF 1.e-6
      MAX_SCF 50
      &OT
        MINIMIZER DIIS
        N_DIIS 7
        PRECONDITIONER FULL_KINETIC
      &END OT

       &OUTER_SCF
        TYPE NONE
        OPTIMIZER NONE
        EPS_SCF 1.0E-6
        MAX_SCF 25

       &END OUTER_SCF 
    &END SCF
    
    &XC
     &XC_FUNCTIONAL PBE
     &END XC_FUNCTIONAL

     &XC_GRID
      XC_SMOOTH_RHO NN50
      XC_DERIV NN50_SMOOTH
     &END XC_GRID

    &END XC

    &PRINT
     &MULLIKEN ON
	  FILENAME ./mulliken.dat
 	  &EACH
	   MD 1
	  &END EACH
     &END MULLIKEN
    &END PRINT

  &END DFT

  &SUBSYS
    &CELL
      ABC 10.4920 10.4920 10.0720
      PERIODIC XYZ
    &END CELL

    &KIND H
      BASIS_SET DZVP-MOLOPT-SR-GTH-q1
      POTENTIAL GTH-PBE-q1
      ELEMENT H
    &END KIND

    &KIND N
      BASIS_SET  DZVP-MOLOPT-SR-GTH-q5
      POTENTIAL GTH-PBE-q5
      ELEMENT N
    &END KIND

    &KIND B
      BASIS_SET  DZVP-MOLOPT-SR-GTH-q3
      POTENTIAL GTH-PBE-q3
      ELEMENT B
    &END KIND

    &COORD
 B     0.0000000000     0.0000000000     0.0000000000   
 B     2.6229999070     2.6229999070     2.5179998870   
 N     0.0000000000     0.0000000000     1.5898651020   
 N     2.6229999070     2.6229999070     4.1078649890   
 H    -0.8462301022     0.2267466725     1.9841837300   
 H     1.7767698048     2.8497465795     4.5021836170   
 H     1.1504176591    -0.3082534827    -0.2317000000   
 H     3.7734175661     2.3147464243     2.2862998870   
 H     0.2264673639    -0.8477711689     1.9851909470   
 H     0.6201155695     0.6213439346     1.9851909470   
 H     2.8494672709     1.7752287381     4.5031908340   
 H     3.2431154765     3.2443438416     4.5031908340   
 H    -0.3064770013     1.1466077319    -0.2317000000   
 H    -0.8386182590    -0.8393704785    -0.2317000000   
 H     2.3165229057     3.7696076389     2.2862998870   
 H     1.7843816480     1.7836294285     2.2862998870   
 B     5.2459998131     0.0000000000     0.0000000000   
 B     7.8689997201     2.6229999070     2.5179998870   
 N     5.2459998131     0.0000000000     1.5898651020   
 N     7.8689997201     2.6229999070     4.1078649890   
 H     5.2459998131     0.8760818680     1.9841837300   
 H     7.8689997201     3.4990818530     4.5021834670   
 H     5.2459998131    -1.1910000000    -0.2317000000   
 H     7.8689997201     1.4321579590     2.2863435780   
 H     4.4857298131    -0.4381700000     1.9851909470   
 H     6.0066696861    -0.4381700000     1.9851909470   
 H     7.1083298471     2.1844344030     4.5031908340   
 H     8.6296695921     2.1844344030     4.5031908340   
 H     6.2742157491     0.5927979690    -0.2317000000   
 H     4.2181798131     0.5927979690    -0.2317000000   
 H     8.8972155781     3.2157977580     2.2863438790   
 H     6.8407838611     3.2157977580     2.2863438790   
 B     0.0000000000     5.2459998131     0.0000000000   
 B     2.6229999070     7.8689997201     2.5179998870   
 N     0.0000000000     5.2459998131     1.5898651020   
 N     2.6229999070     7.8689997201     4.1078649890   
 H     0.0000000000     6.1220816811     1.9841837300   
 H     2.6229999070     8.7450816661     4.5021834670   
 H     0.0000000000     4.0549998131    -0.2317000000   
 H     2.6229999070     6.6781577721     2.2863435780   
 H    -0.7602700000     4.8078298131     1.9851909470   
 H     0.7606698730     4.8078298131     1.9851909470   
 H     1.8623300340     7.4304342161     4.5031908340   
 H     3.3836697790     7.4304342161     4.5031908340   
 H     1.0282159360     5.8387977821    -0.2317000000   
 H    -1.0278200000     5.8387977821    -0.2317000000   
 H     3.6512157650     8.4617975711     2.2863438790   
 H     1.5947840480     8.4617975711     2.2863438790   
 B     5.2459998131     5.2459998131     0.0000000000   
 B     7.8689997201     7.8689997201     2.5179998870   
 N     5.2459998131     5.2459998131     1.5898651020   
 N     7.8689997201     7.8689997201     4.1078649890   
 H     5.2459998131     6.1220816811     1.9841837300   
 H     7.8689997201     8.7450816661     4.5021834670   
 H     5.2459998131     4.0549998131    -0.2317000000   
 H     7.8689997201     6.6781577721     2.2863435780   
 H     4.4857298131     4.8078298131     1.9851909470   
 H     6.0066696861     4.8078298131     1.9851909470   
 H     7.1083298471     7.4304342161     4.5031908340   
 H     8.6296695921     7.4304342161     4.5031908340   
 H     6.2742157491     5.8387977821    -0.2317000000   
 H     4.2181798131     5.8387977821    -0.2317000000   
 H     8.8972155781     8.4617975711     2.2863438790   
 H     6.8407838611     8.4617975711     2.2863438790   
 B     0.0000000000     0.0000000000     5.0359997749   
 B     2.6229999070     2.6229999070     7.5539996619   
 N     0.0000000000     0.0000000000     6.6258648769   
 N     2.6229999070     2.6229999070     9.1438647639   
 H     0.0000000000     0.8760818680     7.0201835049   
 H     2.6229999070     3.4990818530     9.5381832419   
 H     0.0000000000    -1.1910000000     4.8042997749   
 H     2.6229999070     1.4321579590     7.3223433529   
 H    -0.7602700000    -0.4381700000     7.0211907219   
 H     0.7606698730    -0.4381700000     7.0211907219   
 H     1.8623300340     2.1844344030     9.5391906089   
 H     3.3836697790     2.1844344030     9.5391906089   
 H     1.0282159360     0.5927979690     4.8042997749   
 H    -1.0278200000     0.5927979690     4.8042997749   
 H     3.6512157650     3.2157977580     7.3223436539   
 H     1.5947840480     3.2157977580     7.3223436539   
 B     5.2459998131     0.0000000000     5.0359997749   
 B     7.8689997201     2.6229999070     7.5539996619   
 N     5.2459998131     0.0000000000     6.6258648769   
 N     7.8689997201     2.6229999070     9.1438647639   
 H     5.2459998131     0.8760818680     7.0201835049   
 H     7.8689997201     3.4990818530     9.5381832419   
 H     5.2459998131    -1.1910000000     4.8042997749   
 H     7.8689997201     1.4321579590     7.3223433529   
 H     4.4857298131    -0.4381700000     7.0211907219   
 H     6.0066696861    -0.4381700000     7.0211907219   
 H     7.1083298471     2.1844344030     9.5391906089   
 H     8.6296695921     2.1844344030     9.5391906089   
 H     6.2742157491     0.5927979690     4.8042997749   
 H     4.2181798131     0.5927979690     4.8042997749   
 H     8.8972155781     3.2157977580     7.3223436539   
 H     6.8407838611     3.2157977580     7.3223436539   
 B     0.0000000000     5.2459998131     5.0359997749   
 B     2.6229999070     7.8689997201     7.5539996619   
 N     0.0000000000     5.2459998131     6.6258648769   
 N     2.6229999070     7.8689997201     9.1438647639   
 H     0.0000000000     6.1220816811     7.0201835049   
 H     2.6229999070     8.7450816661     9.5381832419   
 H     0.0000000000     4.0549998131     4.8042997749   
 H     2.6229999070     6.6781577721     7.3223433529   
 H    -0.7602700000     4.8078298131     7.0211907219   
 H     0.7606698730     4.8078298131     7.0211907219   
 H     1.8623300340     7.4304342161     9.5391906089   
 H     3.3836697790     7.4304342161     9.5391906089   
 H     1.0282159360     5.8387977821     4.8042997749   
 H    -1.0278200000     5.8387977821     4.8042997749   
 H     3.6512157650     8.4617975711     7.3223436539   
 H     1.5947840480     8.4617975711     7.3223436539   
 B     5.2459998131     5.2459998131     5.0359997749   
 B     7.8689997201     7.8689997201     7.5539996619   
 N     5.2459998131     5.2459998131     6.6258648769   
 N     7.8689997201     7.8689997201     9.1438647639   
 H     5.4727464856     4.3997697109     7.0201835049   
 H     8.0957463926     7.0227696179     9.5381833919   
 H     4.9377463304     6.3964174722     4.8042997749   
 H     7.5607462374     9.0194173792     7.3222996619   
 H     5.8669575000     5.8660118878     7.0211907219   
 H     4.3978423965     5.4723636823     7.0211907219   
 H     8.4899574070     8.4890117948     9.5391906089   
 H     7.0208423035     8.0953635893     9.5391906089   
 H     4.4062468897     4.4072790783     4.8042997749   
 H     6.3922251002     4.9394203360     4.8042997749   
 H     7.0292467967     7.0302789853     7.3222996619   
 H     9.0152250072     7.5624202430     7.3222996619   
     &END COORD

   &END SUBSYS
&END FORCE_EVAL
