&GLOBAL
  PRINT_LEVEL LOW
  WALLTIME 1000000000
   PROJECT test_1 
   !RUN_TYPE WFN_OPT
   !RUN_TYPE GEO_OPT
   RUN_TYPE MD
   SEED 300

&END GLOBAL

&EXT_RESTART
EXTERNAL_FILE test_1-1.restart
RESTART_POS T
RESTART_VEL T
RESTART_THERMOSTAT T
RESTART_COUNTERS OFF
&END EXT_RESTART

&MOTION

  &GEO_OPT
  MAX_ITER 30000
  &END GEO_OPT


  &MD

   COMVEL_TOL 0.000005
   ANGVEL_TOL 0.000005	
   ANGVEL_ZERO
   ENSEMBLE NVT
   STEPS 100000
   TIMESTEP 1
   TEMPERATURE 400.0

!   TEMP_TOL 40

!   &PRINT
!    &ENERGY
!       EACH 5
!    &END ENERGY
!    &RESTART
!       EACH 100
!    &END RESTART
!   &END PRINT

    &THERMOSTAT
      TYPE CSVR
      &CSVR
        TIMECON 40.
      &END CSVR
    &END THERMOSTAT

  
 &END MD

  &PRINT
   &RESTART
    &EACH
     MD 1
    &END EACH
   &END RESTART
  &END PRINT

  &FREE_ENERGY
	&METADYN
            USE_PLUMED .TRUE.
            PLUMED_INPUT_FILE ./plumed.dat
        &END METADYN
  &END FREE_ENERGY

!   &FREE_ENERGY
!    &METADYN
!      WELL_TEMPERED
!      WTGAMMA 10
!      DO_HILLS
!      NT_HILLS 100
!      WW 0.0005
!      &METAVAR
!       COLVAR 1
!       SCALE 0.08

!      &END METAVAR
!      &PRINT
!       &COLVAR
!        COMMON_ITERATION_LEVELS 10000
!       &END COLVAR
!       &HILLS
!        COMMON_ITERATION_LEVELS 10000
!       &END HILLS
!      &END PRINT

!    &END METADYN
!  &END FREE_ENERGY



&END MOTION

&FORCE_EVAL
  METHOD Quickstep

  &DFT
    WFN_RESTART_FILE_NAME test_1-RESTART.wfn
    CHARGE 0
    MULTIPLICITY 1
    BASIS_SET_FILE_NAME BASIS_MOLOPT
    POTENTIAL_FILE_NAME GTH_POTENTIALS
  
    &MGRID
      CUTOFF 300
    &END MGRID
    
    &QS      
      MAP_CONSISTENT
    &END QS

    !&POISSON
    !PERIODIC NONE
    !POISSON_SOLVER MT
    !&END POISSON

    &SCF

!      SCF_GUESS ATOMIC
      SCF_GUESS RESTART
      EPS_SCF 1.e-6
      MAX_SCF 50
      &OT
        MINIMIZER DIIS
        N_DIIS 7
        PRECONDITIONER FULL_KINETIC
      &END OT

       &OUTER_SCF
        TYPE NONE
        OPTIMIZER NONE
        EPS_SCF 1.0E-6
        MAX_SCF 25

       &END OUTER_SCF 
    &END SCF
    
    &XC
     &XC_FUNCTIONAL PBE
     &END XC_FUNCTIONAL

     &XC_GRID
      XC_SMOOTH_RHO NN50
      XC_DERIV NN50_SMOOTH
     &END XC_GRID

    &END XC

    &PRINT
     &MULLIKEN ON
	  FILENAME ./mulliken.dat
 	  &EACH
	   MD 500
	  &END EACH
     &END MULLIKEN
    &END PRINT

  &END DFT

  &SUBSYS
    &CELL
      ABC 10.4920 10.4920 10.0720
      PERIODIC XYZ
    &END CELL

    &KIND H
      BASIS_SET DZVP-MOLOPT-SR-GTH-q1
      POTENTIAL GTH-PBE-q1
      ELEMENT H
    &END KIND

    &KIND N
      BASIS_SET  DZVP-MOLOPT-SR-GTH-q5
      POTENTIAL GTH-PBE-q5
      ELEMENT N
    &END KIND

    &KIND B
      BASIS_SET  DZVP-MOLOPT-SR-GTH-q3
      POTENTIAL GTH-PBE-q3
      ELEMENT B
    &END KIND

    &COORD
  B        -0.2148557621        0.6602590061       -3.1059527623
  B        -6.8771146940        9.0330087007        1.3819246524
  N         0.6487467676        1.9770234183       -2.8439494510
  N         0.3801833892       -4.7425195423        1.8083797462
  H         1.1244177792        2.1449175033       -1.9098415536
  H        -0.0630172144       -4.4558446863        0.9219524522
  H         0.4183945305       -0.2688776868       -3.2296842464
  H        -6.6014252721       10.1361998941        1.8919173838
  H         1.3805878507        2.1176842260       -3.5673166021
  H         0.0007546081        2.7098880874       -3.0058072920
  H        -0.2192761075       -5.5607287344        1.9902232290
  H         0.3579953127       -0.8429651718        2.3322565728
  H        -0.8253975449        0.7446233038       -4.1623247159
  H        -0.9929065335        0.5510052901       -2.2386250179
  H        -7.5486432162        8.9861202250        0.3614217789
  H        -7.4544736246        8.3802967985        2.2332983052
  B         6.3268125500        0.3541398342       -1.2674926511
  B         3.1945284091       -0.0717276184        5.8570344716
  N         4.6604956485        0.3217822429       -1.0804534620
  N         3.7720000589       -1.1261256865        4.8001011613
  H         4.3344088349        0.1305134329       -1.9803260322
  H         4.6075183780       -1.6368561713        5.1274861076
  H         6.7916822767        1.0469736931       -2.1575422007
  H         2.2371763446        0.6160842842        5.3088007637
  H         4.3333020724       -0.4585550383       -0.4773617489
  H         4.3573160822        1.1722079916       -0.6749484345
  H         3.0310194010       -1.8201344125        4.6216528171
  H         4.0855655463       -0.6888068542        3.9453089437
  H         6.6096338410       -0.8486209217       -1.3114089899
  H         6.8103750551        0.6900575023       -0.1365076792
  H         4.0860477637        0.7510246765        6.1652943486
  H         2.7536816902       -0.7561656554        6.7571884320
  B        -0.2275921136        0.2719922081        0.6347483860
  B         3.2538597588        3.3260999856       -0.2982638411
  N         0.4775775503        0.1551479330        2.0825587650
  N         3.1566241452        4.9604747816        0.1065672921
  H        -0.0152243962        0.7938422323        2.7139301190
  H         3.1698602326        5.4210731793       -0.8228587999
  H        -1.3658571239       -0.0338557513        0.6122565424
  H         3.1010293479        3.1286957545       -1.4598813735
  H         0.1419296631       -3.9743336903        2.3940243784
  H         1.4255888982        0.4846698268        1.9453595349
  H         2.2734178594        5.0508427493        0.5873521050
  H         3.9572858908        5.3228721429        0.6974118252
  H         0.3487541918       -0.4157126093       -0.1318608220
  H        -5.9563041210        8.2650492445        1.0953495487
  H         2.4727535472        2.7358397553        0.3773144178
  H         4.4500055952        2.9733733225       -0.0404243544
  B        -0.2657053031        7.4902934479       -1.4226134499
  B         3.6898203549        6.2116362864        6.9007867762
  N         1.2441778022        7.8392927361       -1.7004930576
  N         4.8999333371        5.0905125544        6.7045565842
  H         1.8140253976        8.0087211991       -0.8459174172
  H         5.0804205528        4.9099738354        7.7274945832
  H        -0.5918168077        6.3736960605       -1.8840710536
  H         3.8119335164        6.8183543515        5.8646707419
  H         1.9251858610        7.1234379827       -2.2216194578
  H         1.4964303901        8.7994621912       -2.2354126142
  H         4.7075726074        4.2477819154        6.2775962133
  H         5.6692498691        5.4494050874        6.1549247590
  H        -0.9292351131        8.3991030573       -1.8037559340
  H        -0.3185983678        7.5052039472       -0.2600758080
  H         4.0356098289        6.8449822757        7.8727806773
  H         2.5797821627        5.7149313457        7.1884115521
  B        -0.5255926444        2.5026246043        0.5094776697
  B        -2.4937833104        0.6901819479        3.1871152007
  N        -1.9100832872        2.5771297184       -0.2212962203
  N        -3.0668114185        1.0945811834        4.6997152126
  H        -2.4865829534        1.7535276629       -0.1189372071
  H        -3.8074875774        0.4299281230        4.7989522733
  H        -0.5914293785        2.7105584623        1.7370571154
  H        -3.2883747904        0.6667912816        2.3124453469
  H        -2.4160784848        3.3354656698        0.1446357189
  H        -1.7487352033        2.6737311659       -1.2443757741
  H        -2.2676465439        0.9046079732        5.3575633689
  H        -3.4466036516        2.0562869408        4.8427100197
  H         0.1935261150        3.3448085445       -0.0786117528
  H         0.1783711182        1.3592738868        0.0676069404
  H        -1.9452287155       -0.3903436994        3.6066397695
  H        -1.4573576410        1.3692574369        3.0722010287
  B         6.4577466441       -2.8776813644        4.2920555522
  B         5.6401475581        3.7854733326       13.0388929971
  N         6.4890170744       -2.5117603305        2.7312577198
  N         5.0037609321        2.3787653373       12.5741388454
  H         6.9109660809       -3.2346527264        2.1220852323
  H         5.6579222003        1.6228926540       12.7495975073
  H         6.2652219920       -1.8575165795        4.9016415927
  H         5.3953977057        3.8329447806       14.1632057981
  H         5.5581574455       -2.2668627272        2.2087930555
  H         7.0598401521       -1.6260277285        2.6613459159
  H         4.1439874680        2.0729641776       12.9744515700
  H         4.9847284952        2.1988913466       11.5778592267
  H         7.4134505747       -3.6272915400        4.3744972707
  H         5.4806728830       -3.6514544181        4.4516474135
  H         5.1077730178        4.7056181253       12.4399153199
  H         6.6931821297        3.8083840047       12.6146793375
  B        -2.6209196261        4.4183182101        6.0930324758
  B         0.1840183765        7.5834734151        4.8145752777
  N        -1.9524468167        4.4530706092        4.6196256676
  N        -1.0749883268        8.4495664076        5.5149582979
  H        -1.4755566506        5.3623211024        4.5817233600
  H        -0.8830363360        9.4590987547        5.5769018649
  H        -3.2163197099        3.3862643466        6.1851965099
  H         0.3388324405        8.3120032743        3.8798884676
  H        -1.1912090292        3.8106698011        4.2970263543
  H        -2.5800454994        4.5475899636        3.8669038723
  H        -2.0452007698        8.2290578141        5.2289620038
  H        -1.1333491176        7.9948612912        6.4609598211
  H        -3.4473381854        5.3183419263        6.0989193089
  H        -1.7172479188        4.6645637289        7.0000410938
  H        -0.2458307152        6.4532335380        4.6497913898
  H         1.1318570435        7.5677576494        5.4909982807
  B         2.1573574836        3.5487533098        4.2835385284
  B         6.5546566756        5.7269785667        9.9287385892
  N         2.4951269234        5.1356719715        4.1522948206
  N         7.0979919052        6.6325115752        8.7637043235
  H         2.0306930390        5.4355853923        3.2789008775
  H         8.0231315770        7.0987728552        9.0582510040
  H         1.0102450324        3.4758475159        4.5736943604
  H         7.5557733881        5.3255154968       10.6908958743
  H         2.1306010117        5.6643306066        4.9751928428
  H         3.5059783863        5.3774503861        4.0543947250
  H         7.3280783997        6.1766249570        7.8956656688
  H         6.4272037156        7.3201775170        8.5593908942
  H         2.8098693878        2.8306167558        5.0795670551
  H         2.3856226039        3.1051048067        3.0991817731
  H         6.1521075062        4.7700923664        9.4515186610
  H         5.7588641419        6.2939455815       10.5914450356
     &END COORD

   &END SUBSYS
&END FORCE_EVAL
