&GLOBAL
  PRINT_LEVEL LOW
  WALLTIME 1000000000
   PROJECT test_1 
   !RUN_TYPE WFN_OPT
   !RUN_TYPE GEO_OPT
   RUN_TYPE MD
   SEED 300

&END GLOBAL

&EXT_RESTART
EXTERNAL_FILE test_1-1.restart
RESTART_POS T
RESTART_VEL T
RESTART_THERMOSTAT T
!RESTART_COUNTERS OFF
&END EXT_RESTART

&MOTION

  &GEO_OPT
  MAX_ITER 30000
  &END GEO_OPT


  &MD

   COMVEL_TOL 0.000005
   ANGVEL_TOL 0.000005	
   ANGVEL_ZERO
   ENSEMBLE NVT
   STEPS 100000
   TIMESTEP 1
   TEMPERATURE 400.0

!   TEMP_TOL 40

!   &PRINT
!    &ENERGY
!       EACH 5
!    &END ENERGY
!    &RESTART
!       EACH 100
!    &END RESTART
!   &END PRINT

    &THERMOSTAT
      TYPE CSVR
      &CSVR
        TIMECON 40.
      &END CSVR
    &END THERMOSTAT

  
 &END MD

  &PRINT
   &RESTART
    &EACH
     MD 1
    &END EACH
   &END RESTART
  &END PRINT

  &FREE_ENERGY
	&METADYN
            USE_PLUMED .TRUE.
            PLUMED_INPUT_FILE ./plumed.dat
        &END METADYN
  &END FREE_ENERGY

!   &FREE_ENERGY
!    &METADYN
!      WELL_TEMPERED
!      WTGAMMA 10
!      DO_HILLS
!      NT_HILLS 100
!      WW 0.0005
!      &METAVAR
!       COLVAR 1
!       SCALE 0.08

!      &END METAVAR
!      &PRINT
!       &COLVAR
!        COMMON_ITERATION_LEVELS 10000
!       &END COLVAR
!       &HILLS
!        COMMON_ITERATION_LEVELS 10000
!       &END HILLS
!      &END PRINT

!    &END METADYN
!  &END FREE_ENERGY



&END MOTION

&FORCE_EVAL
  METHOD Quickstep

  &DFT
    WFN_RESTART_FILE_NAME test_1-RESTART.wfn
    CHARGE 0
    MULTIPLICITY 1
    BASIS_SET_FILE_NAME BASIS_MOLOPT
    POTENTIAL_FILE_NAME GTH_POTENTIALS
  
    &MGRID
      CUTOFF 300
    &END MGRID
    
    &QS      
      MAP_CONSISTENT
    &END QS

    !&POISSON
    !PERIODIC NONE
    !POISSON_SOLVER MT
    !&END POISSON

    &SCF

!      SCF_GUESS ATOMIC
      SCF_GUESS RESTART
      EPS_SCF 1.e-6
      MAX_SCF 50
      &OT
        MINIMIZER DIIS
        N_DIIS 7
        PRECONDITIONER FULL_KINETIC
      &END OT

       &OUTER_SCF
        TYPE NONE
        OPTIMIZER NONE
        EPS_SCF 1.0E-6
        MAX_SCF 25

       &END OUTER_SCF 
    &END SCF
    
    &XC
     &XC_FUNCTIONAL PBE
     &END XC_FUNCTIONAL

     &XC_GRID
      XC_SMOOTH_RHO NN50
      XC_DERIV NN50_SMOOTH
     &END XC_GRID

    &END XC

    &PRINT
     &MULLIKEN ON
	  FILENAME ./mulliken.dat
 	  &EACH
	   MD 1
	  &END EACH
     &END MULLIKEN
    &END PRINT

  &END DFT

  &SUBSYS
    &CELL
      ABC 10.4920 10.4920 10.0720
      PERIODIC XYZ
    &END CELL

    &KIND H
      BASIS_SET DZVP-MOLOPT-SR-GTH-q1
      POTENTIAL GTH-PBE-q1
      ELEMENT H
    &END KIND

    &KIND N
      BASIS_SET  DZVP-MOLOPT-SR-GTH-q5
      POTENTIAL GTH-PBE-q5
      ELEMENT N
    &END KIND

    &KIND B
      BASIS_SET  DZVP-MOLOPT-SR-GTH-q3
      POTENTIAL GTH-PBE-q3
      ELEMENT B
    &END KIND

    &COORD
  B        -2.4297394435       -0.8642676802       -0.4999603916
  B        -1.3896403894        4.6848373473       -1.7406336425
  N        -3.0863611659        0.6265488274       -0.7743295738
  N         0.2301637717       -1.6308854027        3.6835289492
  H        -4.0013506977        0.8458739683       -0.3962922100
  H         1.2500067463       -1.5925229760        3.6412045938
  H        -2.1230311666       -0.8437614063        0.7050222232
  H        -1.8045751902        3.9583753201       -0.8389933896
  H        -2.4202780755        1.3569742632       -0.4567825726
  H        -3.0751734985        0.6330260272       -1.8373017075
  H        -0.0860013087       -1.8122825145        2.6914364817
  H         0.0388024478       -2.5002889312        4.2074712722
  H        -1.4967163545       -0.7801615377       -1.1539765885
  H        -3.2244871135       -1.7159773699       -0.9074409866
  H        -0.8465462590        5.7499988653       -1.4469658884
  H        -2.2898450542        4.7647597737       -2.5090968028
  B         3.7381449891        0.2078078596       -0.9788325714
  B         6.5915768608        2.6716054296        1.7337448466
  N         3.0188836898       -0.9230514116        0.1144188259
  N         4.9921513641        2.6306749817        1.7512631176
  H         3.6609067979       -1.6728392789        0.2861355454
  H         4.6182914745        2.0505283765        2.5181453085
  H         4.2331145967       -0.4158174044       -1.9146263540
  H         7.1602057674        3.2089003121        0.7694155800
  H         3.0469995567       -0.3695475707        1.0553662714
  H         2.0683413972       -1.2043252260       -0.1009743066
  H         4.5235876508        3.5155184933        1.8622712272
  H         4.5587569104        2.1429188919        0.9551476951
  H         4.6538260983        0.8522155413       -0.4089437845
  H         2.9158706198        0.9636238876       -1.2394678311
  H         6.9739511020        1.5449651310        1.8010524611
  H         6.7718807702        3.3680228965        2.8019863472
  B         0.3214239800        0.9723335074        1.4026091526
  B         0.8737598047        7.1627328303        1.0767468727
  N         1.4237442283        1.8017129308        1.6060161501
  N         0.2438829473        5.6594161616        1.0767354967
  H         2.0805983414        1.7773831371        0.8255286901
  H         0.9638708160        4.9612896013        1.0466538391
  H         0.2908518633        0.1826335832        0.4582287364
  H         1.5438077709        7.3385298337        2.0081003690
  H        -0.2772405910       -0.8324166810        4.0571004817
  H         1.7728807313        2.2849786015        2.4153833921
  H        -0.2344031097        5.5014355018        1.9888587412
  H        -0.3288901462        5.4603875236        0.2565405640
  H        -0.4190803217        0.8648439262        2.3212939189
  H        -0.3230448631        4.1492660980       -2.2564899967
  H        -0.1192520118        7.9137886359        1.1077537248
  H         1.4384749409        7.5339931883        0.0332434635
  B         3.0657965567        3.7154619646       -0.8971386950
  B         4.9796268117        6.5991240356        1.4950354612
  N         3.1041349973        5.2865137312       -1.1400400405
  N         6.6447422287        6.3944496005        1.0058497341
  H         3.8248068635        5.7248031867       -1.6713816707
  H         6.7133769798        5.3871034104        0.6968582783
  H         1.9886424448        3.3947400820       -0.3272448383
  H         4.6233031805        5.4963304625        1.5847783549
  H         2.2277550215        5.5111317076       -1.6027015760
  H         3.0569842620        5.8822561084       -0.2970380704
  H         6.8532052479        7.0076287182        0.2148386306
  H         7.2411300576        6.5184871816        1.8408459133
  H         3.9200502307        3.5963101266       -0.1342218852
  H         3.3529014545        3.0764357674       -1.9184858388
  H         4.5092461925        7.0253964731        0.4990000662
  H         4.9239641027        7.2830631577        2.5433036732
  B        -2.6445840153       -0.6915451845        4.6457771825
  B         0.2660362819        1.1888713300        5.9123617376
  N        -2.6194653368        0.9194253531        4.4161331354
  N         1.5490907163        1.9847768198        6.4462747322
  H        -1.6870864904        1.2286111142        4.5423300938
  H         2.3952936694        1.4159137257        6.5542030413
  H        -1.8738621584       -1.1186725371        5.4487111580
  H        -0.5876641956        1.8279872149        6.2890739788
  H        -2.9456589606        1.1095537339        3.4437344615
  H        -3.2123994719        1.4282206366        5.1313853373
  H         1.8036801782        2.7462068101        5.8441445252
  H         1.2925761379        2.2761922584        7.3575036414
  H        -2.2986161280       -0.9674359416        3.5391704881
  H        -3.7679239870       -1.0986162831        4.9554156081
  H         0.1763107847        0.1742166233        6.4876246386
  H         0.3075786859        1.0828319103        4.7307786582
  B         3.4977262007       -0.1688093330        3.7976717631
  B         6.0495684316        2.4821574710        6.6892715807
  N         3.9192504734       -0.6308811981        5.2924827477
  N         6.1247505249        3.3003675513        8.0582589673
  H         4.0455435455        0.2092454667        5.9115534891
  H         5.2633551954        3.2479624115        8.6217944319
  H         3.3204988986       -1.2342196602        3.1584223300
  H         6.3695922336        1.3600728045        6.9103607708
  H         3.3184509813       -1.3514499866        5.7502080060
  H         4.8482714035       -1.0270108776        5.2657214060
  H         6.9673974125        3.1501993888        8.5625762299
  H         6.2651723764        4.3401952650        7.8252212642
  H         4.3091192696        0.6388754934        3.3241634002
  H         2.5161903792        0.4462936599        3.6919525954
  H         6.8791008496        2.9417388090        5.9376548805
  H         4.9008017050        2.5702932252        6.2120405039
  B        -1.7657650337        5.7028497405        4.1946177648
  B         1.4868311371        7.7645384576        6.6503139788
  N        -1.3021196841        4.2302842465        4.7646781146
  N        -0.0700359459        7.7390162850        6.8556588684
  H        -1.7005982166        3.5243695027        4.1314270782
  H        -0.3773443131        8.7241692510        7.0002184014
  H        -1.3158434209        6.6087795613        4.9130426728
  H         1.8375630131        8.3361971856        5.4976540770
  H        -0.1900203631        4.2195549642        4.8236327730
  H        -1.6965603614        4.1108943924        5.7056491866
  H        -0.4677639352        7.3797845962        5.9719159443
  H        -0.4720795056        7.1084534856        7.6267584663
  H        -2.9136976643        5.8779101405        4.2027087841
  H        -1.3558652840        5.8059581653        3.0570599603
  H         1.8854659319        6.5713769981        6.5379397600
  H         2.0377709902        8.2892616421        7.5223187346
  B         2.1936733024        4.2152178735        4.0474854695
  B         5.5686147361        6.7717281655        7.3660874372
  N         3.4577139350        5.0588663971        4.5375372508
  N         7.0672531579        7.3363330100        7.1360616787
  H         3.9438784092        4.6584184282        5.3434794666
  H         7.1932568107        8.2341732026        7.7169956566
  H         1.6239177931        4.7893198757        3.1430873243
  H         4.7714792798        7.7818069099        7.3076840913
  H         4.1528482103        5.3141481265        3.8256042766
  H         3.1831685520        6.0232258417        4.8256011926
  H         7.7726749511        6.5923274202        7.4750089444
  H         7.2930064081        7.5162240172        6.1654548632
  H         1.4343884465        4.0657456120        5.0680623979
  H         2.5743467004        3.1346653294        3.7853536544
  H         5.5323586892        6.2199482117        8.4273794213
  H         5.5196630656        5.9397732310        6.4376095540 
     &END COORD

   &END SUBSYS
&END FORCE_EVAL
