&GLOBAL
  PRINT_LEVEL LOW
  WALLTIME 1000000000
   PROJECT test_1 
   !RUN_TYPE WFN_OPT
   !RUN_TYPE GEO_OPT
   RUN_TYPE MD
   SEED 300

&END GLOBAL

&EXT_RESTART
EXTERNAL_FILE test_1-1.restart
RESTART_POS T
RESTART_VEL T
RESTART_THERMOSTAT T
RESTART_COUNTERS OFF
&END EXT_RESTART

&MOTION

  &GEO_OPT
  MAX_ITER 30000
  &END GEO_OPT


  &MD

   COMVEL_TOL 0.000005
   ANGVEL_TOL 0.000005	
   ANGVEL_ZERO
   ENSEMBLE NVT
   STEPS 100000
   TIMESTEP 1
   TEMPERATURE 400.0

!   TEMP_TOL 40

!   &PRINT
!    &ENERGY
!       EACH 5
!    &END ENERGY
!    &RESTART
!       EACH 100
!    &END RESTART
!   &END PRINT

    &THERMOSTAT
      TYPE CSVR
      &CSVR
        TIMECON 40.
      &END CSVR
    &END THERMOSTAT

  
 &END MD

  &PRINT
   &RESTART
    &EACH
     MD 1
    &END EACH
   &END RESTART
  &END PRINT

  &FREE_ENERGY
	&METADYN
            USE_PLUMED .TRUE.
            PLUMED_INPUT_FILE ./plumed.dat
        &END METADYN
  &END FREE_ENERGY

!   &FREE_ENERGY
!    &METADYN
!      WELL_TEMPERED
!      WTGAMMA 10
!      DO_HILLS
!      NT_HILLS 100
!      WW 0.0005
!      &METAVAR
!       COLVAR 1
!       SCALE 0.08

!      &END METAVAR
!      &PRINT
!       &COLVAR
!        COMMON_ITERATION_LEVELS 10000
!       &END COLVAR
!       &HILLS
!        COMMON_ITERATION_LEVELS 10000
!       &END HILLS
!      &END PRINT

!    &END METADYN
!  &END FREE_ENERGY



&END MOTION

&FORCE_EVAL
  METHOD Quickstep

  &DFT
    WFN_RESTART_FILE_NAME test_1-RESTART.wfn
    CHARGE 0
    MULTIPLICITY 1
    BASIS_SET_FILE_NAME BASIS_MOLOPT
    POTENTIAL_FILE_NAME GTH_POTENTIALS
  
    &MGRID
      CUTOFF 300
    &END MGRID
    
    &QS      
      MAP_CONSISTENT
    &END QS

    !&POISSON
    !PERIODIC NONE
    !POISSON_SOLVER MT
    !&END POISSON

    &SCF

!      SCF_GUESS ATOMIC
      SCF_GUESS RESTART
      EPS_SCF 1.e-6
      MAX_SCF 50
      &OT
        MINIMIZER DIIS
        N_DIIS 7
        PRECONDITIONER FULL_KINETIC
      &END OT

       &OUTER_SCF
        TYPE NONE
        OPTIMIZER NONE
        EPS_SCF 1.0E-6
        MAX_SCF 25

       &END OUTER_SCF 
    &END SCF
    
    &XC
     &XC_FUNCTIONAL PBE
     &END XC_FUNCTIONAL

     &XC_GRID
      XC_SMOOTH_RHO NN50
      XC_DERIV NN50_SMOOTH
     &END XC_GRID

    &END XC

    &PRINT
     &MULLIKEN ON
	  FILENAME ./mulliken.dat
 	  &EACH
	   MD 500
	  &END EACH
     &END MULLIKEN
    &END PRINT

  &END DFT

  &SUBSYS
    &CELL
      ABC 10.4920 10.4920 10.0720
      PERIODIC XYZ
    &END CELL

    &KIND H
      BASIS_SET DZVP-MOLOPT-SR-GTH-q1
      POTENTIAL GTH-PBE-q1
      ELEMENT H
    &END KIND

    &KIND N
      BASIS_SET  DZVP-MOLOPT-SR-GTH-q5
      POTENTIAL GTH-PBE-q5
      ELEMENT N
    &END KIND

    &KIND B
      BASIS_SET  DZVP-MOLOPT-SR-GTH-q3
      POTENTIAL GTH-PBE-q3
      ELEMENT B
    &END KIND

    &COORD
  B        -3.4817005190       -2.7625020019        1.6171749049
  B        -1.1418843999        4.9342582816       -1.1599682611
  N        -3.7181503153       -3.3076129367        3.0775704782
  N         2.0527421905        2.1405018387        2.5803815315
  H        -4.6408015995       -2.8874643313        3.3884873528
  H         1.3780261798        1.4280785374        2.9523970595
  H        -3.4854265869       -1.5126535720        1.5441522391
  H        -2.1481609293        4.2615914207       -1.2445659176
  H        -3.9101631892       -4.3479503811        3.0224698447
  H        -2.9820605100       -3.2122426069        3.7859623331
  H         2.5385160166        1.7506307521        1.6752830454
  H         2.7762287369        2.2989409988        3.3145646382
  H        -4.2760508778       -3.3480015345        0.9164887583
  H        -2.3773062471       -3.2511837797        1.3830499141
  H        -1.4474546746        6.0796017066       -1.0980518182
  H        -0.2996131438        4.6328792829       -2.0621524467
  B         3.6115912510       -0.7498169271       -0.2841925622
  B         6.6737159535        1.9411080951        1.5172165564
  N         5.2503473624       -0.7399548452       -0.3153807369
  N         6.5099185749        1.3881526599        2.9911632044
  H         5.8060806106       -1.1361584867        0.4206396064
  H         7.4552757211        1.0417665617        3.3403840391
  H         3.3183801554       -0.6222345468        0.9905560834
  H         7.4270899675        1.1586788288        0.9615558259
  H         5.7492758306       -1.0276222119       -1.1916966504
  H         5.4962968186        0.2882599854       -0.2419254580
  H         6.1682141737        2.1929459638        3.5718599985
  H         5.8035088030        0.6080006073        3.0000339407
  H         3.2849018836       -1.9010217908       -0.5714329072
  H         3.3276927003        0.1894080342       -0.8959785793
  H         7.2455089626        2.9790325126        1.6142067434
  H         5.6428004207        1.9473252055        0.9946216293
  B        -0.5270348671        3.9168784117        0.5570227066
  B         1.3344171197        7.5680026173        2.3474573761
  N         0.8622025824        4.3419565503        1.3324754288
  N         2.8232896274        7.8910766069        2.5635799272
  H         0.7781170639        5.1755154793        1.9338053661
  H         3.3126894750        6.9748836401        2.7553944428
  H        -1.4330552988        3.9081690613        1.3515404978
  H         1.1889647844        7.2461253128        1.1975926194
  H         1.1080279719        3.4129694164        1.9584274588
  H         1.6729163187        4.3633011126        0.7431675227
  H         3.3553023344        8.4335523417        1.7586531976
  H         2.9637605851        8.4243533804        3.3864809420
  H        -0.4814671907        2.9890163840       -0.1096171707
  H        -0.7116432504        5.1257601457        0.0372773350
  H         0.6533056865        8.4376982543        2.8391805576
  H         1.0901236689        6.6318381384        3.1084478175
  B         4.0409652998        4.4927660856       -0.6516496436
  B         4.4840942550        4.8526087957        3.3803696479
  N         5.6656074939        4.6770631382       -0.5077211906
  N         4.6753531571        4.7636392633        5.0953779062
  H         6.0744189588        3.9828987004        0.1471085707
  H         5.5839850031        4.9951935943        5.4455318826
  H         3.7311311436        4.6208263475       -1.8914120248
  H         5.4007455830        4.3006140139        2.8191875569
  H         6.1089903493        4.5157552372       -1.4103540928
  H         5.9656393779        5.6490832814       -0.2989597514
  H         4.0273265043        5.4099684062        5.4698493666
  H         4.3980122551        3.7625132357        5.3627778359
  H         3.6126266850        5.5718480815       -0.1321508026
  H         3.8362358606        3.4160122062       -0.1469594884
  H         4.5280741082        6.0270367532        3.1455116612
  H         3.4291243446        4.3660530902        3.2664917524
  B        -0.9344545198        0.3713827553        3.9842297497
  B        -0.2051243593       -0.6586815345        9.1909143273
  N         0.1609256802       -0.2202726038        5.0485072915
  N        -0.7714597735       -0.5692447116       10.6485057849
  H         0.8837341551       -0.7547749268        4.5708784404
  H        -0.9386471339        0.2782589018       11.2088707337
  H        -1.4254933152       -0.5086298861        3.5528510495
  H        -1.0139472679       -1.5019104659        8.6211937164
  H         0.5460666800        0.5764699908        5.6442624634
  H        -0.3069281093       -0.9210336842        5.6031291255
  H        -1.6984449378       -0.9672965395       10.7417418744
  H        -0.1738544430       -1.1213099131       11.3041467385
  H        -0.2249801920        0.9831526246        3.2450627364
  H        -1.6261372974        1.1923055652        4.4169008709
  H         0.9378578886       -1.0235069712        9.0248228502
  H        -0.3034350693        0.3657290588        8.6653930474
  B         4.0020221091       -0.2266248585        4.5421893510
  B         6.8529327296        1.1310137447        7.2661659663
  N         4.5275060930       -0.4715277560        6.0450701556
  N         8.1739953055        1.8510089734        7.8302920309
  H         4.5985590597       -1.4957230576        6.1687479947
  H         8.0737278641        2.7900383355        8.3371752490
  H         4.8537712333       -0.6104967648        3.8147278336
  H         6.6484839866        1.7871681707        6.2413124932
  H         5.4387351188       -0.0916291099        6.2223003042
  H         3.9273702467       -0.1399505133        6.7723792182
  H         8.6409550630        1.2145248396        8.5345818327
  H         8.8721948723        1.9831524892        7.0966217501
  H         4.0736688752        0.9755198357        4.4589191550
  H         2.8490230832       -0.4935682207        4.4581783350
  H         5.9768008425        1.3133556644        8.0795933224
  H         7.0493734887       -0.0116352795        6.8482025900
  B        -2.0720173872        5.1760140238        5.2681457868
  B         1.5022576685        7.0289920966        6.5802717025
  N        -0.5718448256        4.6694474330        4.7932646661
  N         1.6726173348        6.7752830837        8.1965754443
  H         0.0979571445        5.2391985890        5.2973314000
  H         2.5441002564        7.1000642771        8.7002022972
  H        -1.9107746953        6.4794254512        5.1787349921
  H         2.1292703634        6.2968608022        5.9324756430
  H        -0.2822089152        3.7057856867        4.9842733070
  H        -0.3786581049        4.8078836921        3.7867958207
  H         0.8817080911        7.3693775668        8.6298831750
  H         1.6591971034        5.8036805216        8.5171364638
  H        -2.2649797405        4.9290589088        6.4572782421
  H        -2.9420724835        4.5548682266        4.6151900670
  H         1.9584219392        8.2222257543        6.5152471151
  H         0.2492324967        7.0523488448        6.2468640319
  B         1.6232118013        2.4334932731        6.7832538344
  B         6.0605718079        7.1154288731        7.1565131414
  N         1.6127714822        2.1516891739        8.3663868291
  N         7.4097692902        7.8460245046        7.5565577792
  H         1.0413696784        1.4068411482        8.7265325855
  H         7.5849483653        8.7785552133        7.1631891533
  H         1.9789266644        3.5601546454        6.4914386319
  H         6.2481364814        5.8935116144        7.2956090112
  H         2.5087393235        1.8087023832        8.6565543409
  H         1.3099773042        2.9022903970        8.9755637866
  H         7.5533146790        7.9114128925        8.5192154658
  H         8.2629492023        7.4058131846        7.1754816721
  H         0.4727165411        2.1213073296        6.4584031983
  H         2.3036607907        1.6659724758        6.2066018924
  H         5.7311074532        7.3410190637        5.9184812918
  H         5.1329429430        7.4644298947        7.9588106378 
     &END COORD

   &END SUBSYS
&END FORCE_EVAL
