&GLOBAL
  PRINT_LEVEL LOW
  WALLTIME 1000000000
   PROJECT test_1 
   !RUN_TYPE WFN_OPT
   !RUN_TYPE GEO_OPT
   RUN_TYPE MD
   SEED 300

&END GLOBAL

&EXT_RESTART
EXTERNAL_FILE test_1-1.restart
RESTART_POS T
RESTART_VEL T
RESTART_THERMOSTAT T
RESTART_COUNTERS OFF
&END EXT_RESTART

&MOTION

  &GEO_OPT
  MAX_ITER 30000
  &END GEO_OPT


  &MD

   COMVEL_TOL 0.000005
   ANGVEL_TOL 0.000005	
   ANGVEL_ZERO
   ENSEMBLE NVT
   STEPS 100000
   TIMESTEP 1
   TEMPERATURE 400.0

!   TEMP_TOL 40

!   &PRINT
!    &ENERGY
!       EACH 5
!    &END ENERGY
!    &RESTART
!       EACH 100
!    &END RESTART
!   &END PRINT

    &THERMOSTAT
      TYPE CSVR
      &CSVR
        TIMECON 40.
      &END CSVR
    &END THERMOSTAT

  
 &END MD

  &PRINT
   &RESTART
    &EACH
     MD 1
    &END EACH
   &END RESTART
  &END PRINT

  &FREE_ENERGY
	&METADYN
            USE_PLUMED .TRUE.
            PLUMED_INPUT_FILE ./plumed.dat
        &END METADYN
  &END FREE_ENERGY

!   &FREE_ENERGY
!    &METADYN
!      WELL_TEMPERED
!      WTGAMMA 10
!      DO_HILLS
!      NT_HILLS 100
!      WW 0.0005
!      &METAVAR
!       COLVAR 1
!       SCALE 0.08

!      &END METAVAR
!      &PRINT
!       &COLVAR
!        COMMON_ITERATION_LEVELS 10000
!       &END COLVAR
!       &HILLS
!        COMMON_ITERATION_LEVELS 10000
!       &END HILLS
!      &END PRINT

!    &END METADYN
!  &END FREE_ENERGY



&END MOTION

&FORCE_EVAL
  METHOD Quickstep

  &DFT
    WFN_RESTART_FILE_NAME test_1-RESTART.wfn
    CHARGE 0
    MULTIPLICITY 1
    BASIS_SET_FILE_NAME BASIS_MOLOPT
    POTENTIAL_FILE_NAME GTH_POTENTIALS
  
    &MGRID
      CUTOFF 300
    &END MGRID
    
    &QS      
      MAP_CONSISTENT
    &END QS

    !&POISSON
    !PERIODIC NONE
    !POISSON_SOLVER MT
    !&END POISSON

    &SCF

!      SCF_GUESS ATOMIC
      SCF_GUESS RESTART
      EPS_SCF 1.e-6
      MAX_SCF 50
      &OT
        MINIMIZER DIIS
        N_DIIS 7
        PRECONDITIONER FULL_KINETIC
      &END OT

       &OUTER_SCF
        TYPE NONE
        OPTIMIZER NONE
        EPS_SCF 1.0E-6
        MAX_SCF 25

       &END OUTER_SCF 
    &END SCF
    
    &XC
     &XC_FUNCTIONAL PBE
     &END XC_FUNCTIONAL

     &XC_GRID
      XC_SMOOTH_RHO NN50
      XC_DERIV NN50_SMOOTH
     &END XC_GRID

    &END XC

    &PRINT
     &MULLIKEN ON
	  FILENAME ./mulliken.dat
 	  &EACH
	   MD 1
	  &END EACH
     &END MULLIKEN
    &END PRINT

  &END DFT

  &SUBSYS
    &CELL
      ABC 10.4920 10.4920 10.0720
      PERIODIC XYZ
    &END CELL

    &KIND H
      BASIS_SET DZVP-MOLOPT-SR-GTH-q1
      POTENTIAL GTH-PBE-q1
      ELEMENT H
    &END KIND

    &KIND N
      BASIS_SET  DZVP-MOLOPT-SR-GTH-q5
      POTENTIAL GTH-PBE-q5
      ELEMENT N
    &END KIND

    &KIND B
      BASIS_SET  DZVP-MOLOPT-SR-GTH-q3
      POTENTIAL GTH-PBE-q3
      ELEMENT B
    &END KIND

    &COORD
  B        -1.1934697537       -1.2328853822       -0.8635778283
  B        -1.7596072848        4.9318667689       -1.9041622649
  N        -0.8523331495        0.3558342254       -0.8889173578
  N         1.8425910884       -2.2502517137        1.8473119303
  H        -1.4979761307        0.8798423516       -1.4830261691
  H         0.9699848131       -1.6583788914        1.8545442884
  H        -2.1581840561       -1.2955859585       -0.1617527775
  H        -2.7322249017        5.6250807028       -1.6165702075
  H        -0.8585926844        0.9468991202        0.0228789023
  H         0.0529139285        0.6492410599       -1.2659928187
  H         2.5473453787       -2.0278219961        1.1378805632
  H         2.4440328294       -1.9796191646        2.6329326878
  H        -0.3353472113       -1.9128701057       -0.2862689251
  H        -1.3484618691       -1.6848648470       -2.0327083479
  H        -1.5697420516        4.0779880916       -1.1064216703
  H        -0.7576895682        5.6588457937       -1.9579878859
  B         3.4602889734       -1.0687118950       -0.8164360660
  B         6.2351068432        1.8571951517        1.6886473091
  N         4.2113221692        0.3525162920       -0.9500290712
  N         5.9966543749        1.8557954473        3.2504705220
  H         3.6145978088        1.0935356388       -1.2989402211
  H         5.5991780778        0.9507427030        3.5678660538
  H         2.4286864386       -1.0220949208       -0.2470219103
  H         5.1515851547        1.4931610709        1.1975781601
  H         4.6496465521        0.8675390307       -0.0684139333
  H         4.9385710954        0.2217569363       -1.6370022134
  H         6.8532494834        1.9932403483        3.9378494033
  H         5.2894764936        2.5693860530        3.5337267303
  H         4.2082298100       -1.9050385445       -0.3083141471
  H         3.1073718490       -1.4657366120       -1.8724302531
  H         7.2187212980        1.2015770339        1.4714052698
  H         6.4206356025        2.9917087301        1.2179783641
  B         1.3826391153        1.5840526023        1.9107207302
  B         0.3928647385        5.8869129140        0.5340810194
  N         1.0381034738        2.5462657996        0.9617161659
  N        -1.1508077552        6.1738408480        0.8120929495
  H         0.4522643556        3.3453366854        1.1601075394
  H        -1.4581956407        7.1957174714        0.8475394601
  H         0.7182428360        1.5819255653        2.9158120430
  H         0.9975280163        5.5732047212        1.6328715430
  H         1.5328331692       -3.1718870274        1.9770744740
  H         1.6107085280        2.8480800022        0.1591739056
  H        -1.7414699586        5.6871831035       -0.0232501541
  H        -1.4009012191        5.6780416727        1.6733796014
  H         2.2446678142        0.8219324183        1.5382651742
  H        -1.9499085441        4.4293878917       -3.0893504486
  H         1.0252866960        6.7826226862        0.0651652299
  H         0.8028752159        4.9231200170       -0.2201731437
  B         4.0967351247        4.4170546258       -0.5110536870
  B         5.9513279679        7.2189069515        1.7597921226
  N         3.7564269328        4.1278664031        1.0638906166
  N         5.9839052455        8.8401574503        1.5281893556
  H         2.7720791191        4.2773663211        1.2697036553
  H         5.1960571369        9.3789301087        2.0414959693
  H         3.6804778350        5.5334276919       -0.8820322389
  H         6.4304324359        6.9386026689        2.8616182755
  H         4.0773901382        3.1616426005        1.2623476464
  H         4.3484720142        4.7091826078        1.6074617827
  H         6.8672532370        9.2059784679        1.9910385403
  H         6.0335632951        9.2875657799        0.5865111926
  H         3.5969379277        3.4987126750       -1.0839945675
  H         5.2853101480        4.4778525273       -0.6879292237
  H         6.6533782711        6.8004572326        0.8438306507
  H         4.7260130135        6.8640934382        1.8793989239
  B        -1.3408033768       -1.2233765392        3.2617397668
  B         0.6847208364        2.1518953655        6.8502712919
  N        -1.1937335273       -0.5861915061        4.6666933982
  N         0.8219945664        3.5610394271        5.9878636118
  H        -0.6581323141       -1.2721945872        5.3423667225
  H         1.6926929562        4.0774146492        5.8070234839
  H        -2.3610665636       -0.8247801113        2.7800523447
  H         1.3125330407        2.4259957953        7.8808674923
  H        -0.5375160262        0.2022469525        4.7195821377
  H        -1.9585521863       -0.1955564917        5.1744371038
  H         0.3152247170        3.5184355754        5.0908566928
  H         0.1814754195        4.0544754439        6.6597080466
  H        -1.5198460630       -2.3993136511        3.4981206904
  H        -0.4675263043       -1.1977148400        2.4242044824
  H         1.3446840970        1.2832881640        6.2595707902
  H        -0.6063079428        2.0210492720        6.9157042929
  B         3.5254384371       -0.2471877445        4.3852630306
  B         6.4729754244        1.6199180662        6.7563178977
  N         3.2551002645       -0.6256926237        5.9940164951
  N         6.2164721240        3.0424438023        7.5280368222
  H         3.1815074081        0.2195495873        6.5377562806
  H         7.0982314541        3.4582150057        7.7645787768
  H         4.8388817436       -0.0970417406        4.6035602897
  H         7.0940562215        0.8926677955        7.5512450065
  H         2.4148757809       -1.1661202810        6.1247469615
  H         4.0723232726       -1.0254609169        6.3882585138
  H         5.7657180203        3.6482641318        6.7491693245
  H         5.6154164561        3.0497494791        8.3506139402
  H         2.9209542985        0.7879064811        3.9710608299
  H         3.2592739491       -1.1949336591        3.7013574040
  H         7.0275055083        1.8672027124        5.6319619018
  H         5.3881013305        1.2107187279        6.6798774657
  B        -1.5675614497        4.2174979056        3.6878664743
  B         0.7969395960        7.2868125197        5.9816251950
  N        -2.0643946818        5.4506881872        4.5269703498
  N         0.9531641317        7.0744309598        7.5113184271
  H        -1.5712015471        5.5471501548        5.4046759524
  H         1.8098363046        6.5220790051        7.7044487828
  H        -1.6653469222        3.1882904318        4.4504722566
  H        -0.3429283511        7.6438940688        5.7636626297
  H        -1.8958245184        6.3579997344        4.0949569885
  H        -2.9964497710        5.6167029562        4.8524109007
  H         1.0467706609        7.8425787002        8.2323636073
  H         0.1993957255        6.4059735674        7.9178946659
  H        -0.4275725786        4.5195852484        3.2860482104
  H        -2.2064048826        3.9746395597        2.7414827721
  H         1.0867880478        6.2207017908        5.4193988642
  H         1.4341824251        8.2363260463        5.5968186402
  B         3.8083520284        4.6810357345        4.8633885270
  B         6.2269401032        8.0840676133        6.6011227081
  N         3.9933191550        6.3066435451        4.7288235522
  N         6.4301701226        7.3545169091        8.0853483240
  H         3.1133641566        6.9239788867        4.8818236573
  H         7.2096200325        6.6149873335        8.0394512544
  H         2.8719514292        4.1954047427        4.2755478503
  H         6.2623063720        9.2490994087        6.8369666359
  H         4.6285138470        6.5249881648        5.4992036116
  H         4.6254477365        6.5609870830        3.9520312299
  H         6.9376327368        8.0644105943        8.6383195363
  H         5.6338097233        6.9791210051        8.6247912130
  H         3.8544508451        4.3695210907        6.0603442605
  H         4.8930426753        4.3698590833        4.3926869734
  H         5.1582259915        7.8325873519        5.9764850281
  H         7.3211057714        7.9310621353        6.0334245909 
     &END COORD

   &END SUBSYS
&END FORCE_EVAL
