&GLOBAL
  PRINT_LEVEL LOW
  WALLTIME 1000000000
   PROJECT test_1 
   !RUN_TYPE WFN_OPT
   !RUN_TYPE GEO_OPT
   RUN_TYPE MD
   SEED 300

&END GLOBAL

&EXT_RESTART
EXTERNAL_FILE test_1-1.restart
RESTART_POS T
RESTART_VEL T
RESTART_THERMOSTAT T
RESTART_COUNTERS OFF
&END EXT_RESTART

&MOTION

  &GEO_OPT
  MAX_ITER 30000
  &END GEO_OPT


  &MD

   COMVEL_TOL 0.000005
   ANGVEL_TOL 0.000005	
   ANGVEL_ZERO
   ENSEMBLE NVT
   STEPS 100000
   TIMESTEP 1
   TEMPERATURE 400.0

!   TEMP_TOL 40

!   &PRINT
!    &ENERGY
!       EACH 5
!    &END ENERGY
!    &RESTART
!       EACH 100
!    &END RESTART
!   &END PRINT

    &THERMOSTAT
      TYPE CSVR
      &CSVR
        TIMECON 40.
      &END CSVR
    &END THERMOSTAT

  
 &END MD

  &PRINT
   &RESTART
    &EACH
     MD 1
    &END EACH
   &END RESTART
  &END PRINT

  &FREE_ENERGY
	&METADYN
            USE_PLUMED .TRUE.
            PLUMED_INPUT_FILE ./plumed.dat
        &END METADYN
  &END FREE_ENERGY

!   &FREE_ENERGY
!    &METADYN
!      WELL_TEMPERED
!      WTGAMMA 10
!      DO_HILLS
!      NT_HILLS 100
!      WW 0.0005
!      &METAVAR
!       COLVAR 1
!       SCALE 0.08

!      &END METAVAR
!      &PRINT
!       &COLVAR
!        COMMON_ITERATION_LEVELS 10000
!       &END COLVAR
!       &HILLS
!        COMMON_ITERATION_LEVELS 10000
!       &END HILLS
!      &END PRINT

!    &END METADYN
!  &END FREE_ENERGY



&END MOTION

&FORCE_EVAL
  METHOD Quickstep

  &DFT
    WFN_RESTART_FILE_NAME test_1-RESTART.wfn
    CHARGE 0
    MULTIPLICITY 1
    BASIS_SET_FILE_NAME BASIS_MOLOPT
    POTENTIAL_FILE_NAME GTH_POTENTIALS
  
    &MGRID
      CUTOFF 300
    &END MGRID
    
    &QS      
      MAP_CONSISTENT
    &END QS

    !&POISSON
    !PERIODIC NONE
    !POISSON_SOLVER MT
    !&END POISSON

    &SCF

!      SCF_GUESS ATOMIC
      SCF_GUESS RESTART
      EPS_SCF 1.e-6
      MAX_SCF 50
      &OT
        MINIMIZER DIIS
        N_DIIS 7
        PRECONDITIONER FULL_KINETIC
      &END OT

       &OUTER_SCF
        TYPE NONE
        OPTIMIZER NONE
        EPS_SCF 1.0E-6
        MAX_SCF 25

       &END OUTER_SCF 
    &END SCF
    
    &XC
     &XC_FUNCTIONAL PBE
     &END XC_FUNCTIONAL

     &XC_GRID
      XC_SMOOTH_RHO NN50
      XC_DERIV NN50_SMOOTH
     &END XC_GRID

    &END XC

    &PRINT
     &MULLIKEN ON
	  FILENAME ./mulliken.dat
 	  &EACH
	   MD 1
	  &END EACH
     &END MULLIKEN
    &END PRINT

  &END DFT

  &SUBSYS
    &CELL
      ABC 10.4920 10.4920 10.0720
      PERIODIC XYZ
    &END CELL

    &KIND H
      BASIS_SET DZVP-MOLOPT-SR-GTH-q1
      POTENTIAL GTH-PBE-q1
      ELEMENT H
    &END KIND

    &KIND N
      BASIS_SET  DZVP-MOLOPT-SR-GTH-q5
      POTENTIAL GTH-PBE-q5
      ELEMENT N
    &END KIND

    &KIND B
      BASIS_SET  DZVP-MOLOPT-SR-GTH-q3
      POTENTIAL GTH-PBE-q3
      ELEMENT B
    &END KIND

    &COORD
  B        -1.8323954193       -1.2256954560       -1.5996083606
  B        -1.3286313337        3.8636794256       -1.9273380769
  N        -2.2198454051       -0.3134881483       -0.2512195720
  N         0.7123999933       -0.4093344572        1.8373243439
  H        -2.3716506221        0.6694448814       -0.6439147905
  H         1.0409226545       -0.0657240190        2.7763298351
  H        -2.7787710035       -1.1323138233       -2.3925526720
  H        -1.5327178962        4.4844171874       -2.9307988349
  H        -3.0907814768       -0.4210616776        0.2161761891
  H        -1.4635418613       -0.0175271075        0.4426091716
  H         1.1980764538       -1.3423854594        1.8774120288
  H        -0.2951239621       -0.5737833181        1.8235009016
  H        -1.8815941326       -2.3991708857       -1.1145727036
  H        -0.7534297014       -0.8588320757       -1.9358954064
  H        -1.3505063360        2.6646513535       -1.9507280171
  H        -2.1767513000        4.3552213901       -1.1842185730
  B         2.5832898273       -0.9226585493       -1.2244602882
  B         5.6582775113        2.2852763095        0.8760958091
  N         3.9948936132       -0.2534477103       -0.8088436601
  N         6.1416916545        2.3665552403        2.3379734215
  H         4.5647818678       -0.9344935873       -0.3190518854
  H         6.6562099511        1.4896208526        2.6608486130
  H         2.6121807760       -1.1336916704       -2.4240890829
  H         5.9261909401        3.2712217677        0.2217245041
  H         4.4873749886        0.0129181658       -1.6688119979
  H         3.8614646447        0.4925101274       -0.1216689008
  H         6.7978651676        3.0874662264        2.5726430813
  H         5.3006421409        2.5004986257        3.0137141283
  H         1.7342893737       -0.0629848917       -0.9227846706
  H         2.2591941567       -1.9011485853       -0.6010709288
  H         4.4153157311        2.1181856930        0.9120165837
  H         6.0525863894        1.2863733913        0.2290938495
  B        -0.4431857101        2.7238218175        1.5996301643
  B         0.7838452571        6.3797701679        1.5352077132
  N         0.9541104785        2.5143405529        1.5052567088
  N        -0.6384356748        6.0056228629        0.6423582360
  H         1.5821279162        3.0791588873        2.0529200730
  H        -1.2426206964        5.4764459283        1.3167139164
  H        -0.8254607444        3.5487352869        2.3559024561
  H         0.3646880697        7.3268855291        2.1050946554
  H         1.0228813760        0.1498389071        1.0631972736
  H         1.3098673129        1.9812502953        0.7643892241
  H        -1.1860226695        6.7931088666        0.3404752606
  H        -0.4691788652        5.3228938397       -0.1585801473
  H        -1.0964707202        2.1840040746        0.7937935030
  H        -0.2162450355        4.1160989008       -1.6761794952
  H         1.7435012275        6.6747255570        0.9440114852
  H         1.1634530079        5.5385885628        2.3920514174
  B         3.4519296297        4.5195437390       -1.8335743455
  B         6.1640247606        6.8743922102        0.7552920991
  N         3.4741575307        4.6500481214       -0.3108585419
  N         5.7248923153        7.0223104943        2.3006300160
  H         2.4866693801        4.4995911835        0.0080709112
  H         6.6214663935        7.0736340822        2.8064617530
  H         4.5832308181        4.5114044738       -2.3290613244
  H         7.0474904153        7.6993882967        0.5150525571
  H         4.0457473533        3.9595614528        0.2154222887
  H         3.7396429428        5.6254695180        0.0754445718
  H         5.1666214250        7.9303543243        2.3506871632
  H         5.1753710428        6.2367238311        2.7262343342
  H         2.7680439779        5.4639592998       -2.3232872792
  H         2.9244179532        3.4395797943       -2.1720446660
  H         5.2378324701        7.1068522845       -0.0143139070
  H         6.6609530068        5.7099503480        0.4651877906
  B        -2.1645534625       -0.1378686123        3.3239094336
  B         0.9696544610        1.8783024765        5.4734258376
  N        -2.0353618759       -0.5441842878        4.8684450850
  N         0.9607894372        1.7647404731        7.0567472196
  H        -2.5575213665        0.2701207547        5.4153248612
  H         0.5598852123        0.8799245575        7.3117164272
  H        -3.2939891958        0.1577044617        2.9883889818
  H         1.6243917923        0.9451461780        4.9273908465
  H        -2.5340239104       -1.3925582232        5.1017742756
  H        -1.1104946920       -0.8110250413        5.2022363754
  H         1.8321442470        1.8164708479        7.5139490501
  H         0.3494902950        2.5450198853        7.5028360461
  H        -2.0069935369       -1.1831435733        2.6765546202
  H        -1.5126367477        0.7588838749        2.9894439947
  H         1.4303419385        2.9777403701        5.1165923476
  H        -0.2814799194        1.6702117264        5.3312236702
  B         3.7696406287       -0.5422217912        3.0967251553
  B         5.7495995605        1.4689860748        6.4019893316
  N         3.7216172872       -0.7250563595        4.6444328286
  N         6.4066499240        2.9542019202        6.7703970603
  H         4.2096477066        0.1168910698        5.0054075001
  H         5.7179406229        3.6523847712        7.0683234211
  H         3.2730456994        0.5258437571        2.9903171712
  H         4.6663958172        1.2374653604        6.7166193845
  H         2.8054128983       -0.8810877141        5.0580303981
  H         4.2459903249       -1.5806396467        4.9893941482
  H         7.1100562561        2.8943300379        7.5197936159
  H         6.8948444788        3.3032086213        5.8931673507
  H         3.2420579890       -1.3589044549        2.4906536040
  H         4.9218265354       -0.3260003389        2.7034764735
  H         6.5532857561        0.6709628247        6.9573203822
  H         5.7664913681        1.5134104485        5.1660362655
  B        -2.3228650479        4.7279544394        4.1777861132
  B         0.1750572333        7.5612259887        5.9048928438
  N        -0.7754654713        4.8399354629        4.4088394095
  N         0.3226528033        6.8669752414        7.4486078420
  H        -0.6066126462        4.9352145911        5.4093264396
  H        -0.2556840341        7.4856819106        8.0270602511
  H        -2.8778521306        5.3496515781        5.0386125085
  H         0.5675081559        8.7299410225        5.9902227030
  H        -0.3242848485        3.9452025847        4.2359266229
  H        -0.2659543860        5.5380048271        3.8661812491
  H        -0.1628433453        5.9086907756        7.5910094895
  H         1.2820459344        6.9269545907        7.9478313393
  H        -2.7197028902        3.5790266461        4.2380439054
  H        -2.6508902361        5.2532212520        3.1016153058
  H        -1.0772042063        7.6976798201        5.6465217148
  H         0.7651004704        6.8691624862        5.0693245321
  B         4.0693802186        4.5826352865        3.8550729044
  B         5.5940247688        7.7521739085        6.5276413762
  N         3.1926658161        4.9957150238        5.1831128700
  N         6.8390833390        6.9475099946        7.0110811420
  H         2.1906795595        5.2483606690        5.0573383908
  H         7.6654201099        7.4757631857        6.7315475488
  H         3.8095420831        3.4396603013        3.6268763725
  H         5.7336820096        7.8734767697        5.3214085584
  H         3.2469939543        4.2601011673        5.8992959138
  H         3.5142002376        5.8155049890        5.6874749640
  H         6.9397980462        6.8695454454        8.0937628513
  H         6.8500167169        6.0163662917        6.5342576904
  H         5.1950394687        4.8179691921        4.2098481988
  H         3.7221802079        5.2750710847        2.8961214754
  H         5.5380036162        8.8523415421        7.0075374899
  H         4.5015991703        7.1040334287        6.7213140680
     &END COORD

   &END SUBSYS
&END FORCE_EVAL
